 vasp.6.4.3 19Mar24 (build Oct 16 2024 18:29:25) complex

 executed on             LinuxIFC date 2025.08.18  16:08:21

 INCAR:
   ALGO = Fast
   EDIFF = 0.0017000000000000001
   ENCUT = 520.0
   IBRION = 2
   ISIF = 3
   ISMEAR = -5
   ISPIN = 2
   LASPH = True
   LORBIT = 11
   LREAL = Auto
   LWAVE = False
   MAGMOM = 34*-0.0
   NELM = 100
   NSW = 99
   PREC = Accurate
   SIGMA = 0.05

 POTCAR:   PAW_PBE Al 04Jan2001
 POTCAR:    PAW_PBE S 17Jan2003
 POTCAR:   PAW_PBE O 08Apr2002
 POTCAR:   PAW_PBE Al 04Jan2001
   VRHFIN =Al: s2p1

   TITEL  = PAW_PBE Al 04Jan2001
   POMASS =   26.982; ZVAL   =    3.000    mass and valenz
   ENMAX  =  240.300; ENMIN  =  180.225 eV
   QCUT   =   -4.203; QGAM   =    8.405    optimization parameters

   Description
     l     E      TYP  RCUT    TYP  RCUT
     0   .000     23  1.900
     0   .000     23  1.900
     1   .000     23  1.900
     1  1.000     23  1.900
     2   .000      7  1.900

 POTCAR:    PAW_PBE S 17Jan2003
   VRHFIN =S : s2p4

   TITEL  = PAW_PBE S 17Jan2003
   POMASS =   32.066; ZVAL   =    6.000    mass and valenz
   ENMAX  =  280.000; ENMIN  =  194.016 eV
   QCUT   =   -4.360; QGAM   =    8.721    optimization parameters

[...]

 POTCAR:   PAW_PBE O 08Apr2002
   VRHFIN =O: s2p4

   TITEL  = PAW_PBE O 08Apr2002
   POMASS =   16.000; ZVAL   =    6.000    mass and valenz
   ENMAX  =  400.000; ENMIN  =  300.000 eV
   QCUT   =   -5.520; QGAM   =   11.041    optimization parameters

   Description
     l     E      TYP  RCUT    TYP  RCUT
     0   .000     23  1.200
     0  -.700     23  1.200
     1   .000     23  1.520
     1   .600     23  1.520
     2   .000      7  1.500

 Optimization of the real space projectors (new method)

 maximal supplied QI-value         = 19.84
 optimisation between [QCUT,QGAM] = [ 11.51, 23.22] = [ 37.09,150.92] Ry
 Optimized for a Real-space Cutoff    1.18 Angstroem

   l    n(q)    QCUT    max X(q) W(low)/X(q) W(high)/X(q)  e(spline)
   0      8    11.508    13.410    0.14E-04    0.92E-05    0.50E-08
   0      8    11.508   140.052    0.11E-03    0.16E-03    0.39E-07
   1      8    11.508     9.624    0.12E-04    0.31E-04    0.22E-07
   1      8    11.508    53.353    0.21E-03    0.91E-04    0.68E-07
 Optimization of the real space projectors (new method)

[...]

   l    n(q)    QCUT    max X(q) W(low)/X(q) W(high)/X(q)  e(spline)
   0      8    11.508     5.487    0.18E-04    0.22E-05    0.47E-08
   0      8    11.508    85.627    0.96E-04    0.18E-03    0.54E-07
   1      8    11.508     3.530    0.17E-04    0.28E-04    0.21E-07
   1      8    11.508    42.714    0.18E-03    0.63E-04    0.92E-07
 Optimization of the real space projectors (new method)

 maximal supplied QI-value         = 24.76
 optimisation between [QCUT,QGAM] = [ 11.64, 23.27] = [ 37.91,151.63] Ry
 Optimized for a Real-space Cutoff    1.08 Angstroem

   l    n(q)    QCUT    max X(q) W(low)/X(q) W(high)/X(q)  e(spline)
   0      7    11.635     4.192    0.54E-04    0.80E-04    0.26E-07
   0      7    11.635     8.473    0.70E-04    0.40E-03    0.21E-06
   1      7    11.635     2.474    0.39E-04    0.14E-03    0.23E-07
   1      7    11.635     3.912    0.25E-03    0.37E-03    0.22E-06
 PAW_PBE Al 04Jan2001                   :
  PAW_PBE S 17Jan2003                   :
 PAW_PBE O 08Apr2002                    :

 POSCAR: Al4 S6 O24
  positions in direct lattice

 exchange-correlation table for PE
   RHO(1)=    0.500       N(1)  =     2000
   RHO(2)=  100.500       N(2)  =     4000

 ion  position               nearest neighbor table
   1  0.143  0.143  0.143-  17 1.87  18 1.87  19 1.87  21 1.87  22 1.87  23 1.87
   2  0.857  0.857  0.857-  33 1.87  34 1.87  20 1.87  26 1.87  25 1.87  24 1.87
   3  0.352  0.352  0.352-  11 1.88  12 1.88  13 1.88  27 1.88  28 1.88  29 1.88
   4  0.648  0.648  0.648-  16 1.88  15 1.88  14 1.88  31 1.88  32 1.88  30 1.88
   5  0.539  0.964  0.248-  34 1.45  22 1.46  15 1.46  28 1.47
   6  0.248  0.539  0.964-  33 1.45  21 1.46  16 1.46  27 1.47
   7  0.964  0.248  0.539-  20 1.45  23 1.46  14 1.46  29 1.47
   8  0.752  0.461  0.036-  19 1.45  24 1.46  13 1.46  30 1.47
   9  0.461  0.036  0.752-  18 1.45  25 1.46  12 1.46  31 1.47
  10  0.036  0.752  0.461-  17 1.45  26 1.46  11 1.46  32 1.47
  11  0.184  0.546  0.476-  10 1.46   3 1.88
  12  0.476  0.184  0.546-   9 1.46   3 1.88
  13  0.546  0.476  0.184-   8 1.46   3 1.88
  14  0.816  0.454  0.524-   7 1.46   4 1.88
  15  0.524  0.816  0.454-   5 1.46   4 1.88
  16  0.454  0.524  0.816-   6 1.46   4 1.88
  17  0.112  0.895  0.264-  10 1.45   1 1.87
  18  0.264  0.112  0.895-   9 1.45   1 1.87
  19  0.895  0.264  0.112-   8 1.45   1 1.87
  20  0.888  0.105  0.736-   7 1.45   2 1.87
  21  0.205  0.379  0.993-   6 1.46   1 1.87
  22  0.379  0.993  0.205-   5 1.46   1 1.87
  23  0.993  0.205  0.379-   7 1.46   1 1.87
  24  0.795  0.621  0.007-   8 1.46   2 1.87
  25  0.621  0.007  0.795-   9 1.46   2 1.87
  26  0.007  0.795  0.621-  10 1.46   2 1.87
  27  0.229  0.519  0.156-   6 1.47   3 1.88
  28  0.519  0.156  0.229-   5 1.47   3 1.88
  29  0.156  0.229  0.519-   7 1.47   3 1.88
  30  0.771  0.481  0.844-   8 1.47   4 1.88
  31  0.481  0.844  0.771-   9 1.47   4 1.88
  32  0.844  0.771  0.481-  10 1.47   4 1.88
  33  0.105  0.736  0.888-   6 1.45   2 1.87
  34  0.736  0.888  0.105-   5 1.45   2 1.87

  LATTYP: Found a trigonal (rhomboedric) cell.
 ALAT       =     8.4937662187
 COS(alpha) =     0.5540777280

  Lattice vectors:

 A1 = (   7.4872380700,  -4.0106512900,   0.0026250700)
 A2 = (   7.4872394100,   4.0106516300,   0.0026220400)
 A3 = (   5.3365635100,  -0.0000001900,   6.6079686100)

Analysis of symmetry for initial positions (statically):
 Subroutine PRICEL returns:
 Original cell was already a primitive cell.

 Routine SETGRP: Setting up the symmetry group for a
 trigonal (rhombohedral) supercell.

 Subroutine GETGRP returns: Found  6 space group operations
 (whereof  6 operations were pure point group operations)
 out of a pool of 12 trial point group operations.

The static configuration has the point symmetry S_6 .

Analysis of symmetry for dynamics (positions and initial velocities):
 Subroutine PRICEL returns:
 Original cell was already a primitive cell.

[...]

The dynamic configuration has the point symmetry S_6 .

Analysis of structural, dynamic, and magnetic symmetry:
 Subroutine PRICEL returns:
 Original cell was already a primitive cell.

 Routine SETGRP: Setting up the symmetry group for a
 trigonal (rhombohedral) supercell.

 Subroutine GETGRP returns: Found  6 space group operations
 (whereof  6 operations were pure point group operations)
 out of a pool of 12 trial point group operations.

The overall configuration has the point symmetry S_6 .

 Subroutine INISYM returns: Found  6 space group operations
 (whereof  6 operations are pure point group operations),
 and found     1 'primitive' translations

                                     Primitive cell

  volume of cell :     396.7452

  direct lattice vectors                    reciprocal lattice vectors
     7.487238070 -4.010651290  0.002625070     0.066799199 -0.124668057 -0.053946714
     7.487239410  4.010651630  0.002622040     0.066799194  0.124667994 -0.053946702
     5.336563510 -0.000000190  6.607968610    -0.000053042  0.000000057  0.151375275

  length of vectors
     8.493766219  8.493767560  8.493771792     0.151375380  0.151375321  0.151375284

  position of ions in fractional coordinates (direct lattice)
     0.143383780  0.143383050  0.143383150
     0.856616860  0.856615890  0.856617000
     0.351911610  0.351912070  0.351911810
     0.648087380  0.648088770  0.648088230
     0.539394710  0.963749010  0.248443810
     0.248444380  0.539394550  0.963749060
     0.963748970  0.248444050  0.539393970
     0.751556160  0.460606120  0.036250520
     0.460605000  0.036251260  0.751555680
     0.036251060  0.751555890  0.460605390
     0.184174390  0.546065580  0.475960940
     0.475961250  0.184174360  0.546065160
     0.546067700  0.475959090  0.184174010
     0.815825630  0.453932670  0.524040630
     0.524038970  0.815825980  0.453933840
     0.453935160  0.524038890  0.815825330
     0.111886330  0.895382230  0.263823050
     0.263822870  0.111886710  0.895381900
     0.895381940  0.263824250  0.111884510
     0.888115190  0.104618630  0.736174830
     0.204862440  0.379209070  0.992965070
     0.379209850  0.992964230  0.204862800
     0.992962450  0.204865700  0.379211710
     0.795134880  0.620787930  0.007036970
     0.620790450  0.007035670  0.795136800
     0.007035750  0.795137570  0.620789990
     0.228534180  0.519497900  0.156463950
     0.519498070  0.156463440  0.228533280
     0.156461450  0.228534100  0.519498630
     0.771466620  0.480500660  0.843538360
     0.480502010  0.843536310  0.771465910
     0.843536370  0.771466070  0.480502250
     0.104617230  0.736177090  0.888113720
     0.736176910  0.888114230  0.104617750

  ion indices of the primitive-cell ions
   primitive index   ion index
                 1           1
                 2           2
                 3           3
                 4           4
                 5           5
                 6           6
                 7           7
                 8           8
                 9           9
                10          10
                11          11
                12          12
                13          13
                14          14
                15          15
                16          16
                17          17
                18          18
                19          19
                20          20
                21          21
                22          22
                23          23
                24          24
                25          25
                26          26
                27          27
                28          28
                29          29
                30          30
                31          31
                32          32
                33          33
                34          34

 KPOINTS: pymatgen with grid density = 1360 / numb

Automatic generation of k-mesh.
 Grid dimensions read from file:
 generate k-points for:    3    3    3

 Generating k-lattice:

  Cartesian coordinates                     Fractional coordinates (reciprocal lattice)
     0.022266400 -0.041556019 -0.017982238     0.333333333 -0.000000000 -0.000000000
     0.022266398  0.041555998 -0.017982234     0.000000000  0.333333333 -0.000000000
    -0.000017681  0.000000019  0.050458425    -0.000000000 -0.000000000  0.333333333

  Length of vectors
     0.050458460  0.050458440  0.050458428

  Shift w.r.t. Gamma in fractional coordinates (k-lattice)
     0.000000000  0.000000000  0.000000000

 TETIRR: Found     14 inequivalent tetrahedra from      162

 Subroutine IBZKPT returns following result:

 Found      6 irreducible k-points:

 Following reciprocal coordinates:
            Coordinates               Weight
  0.000000  0.000000  0.000000      1.000000
  0.333333  0.000000  0.000000      6.000000
  0.333333  0.333333  0.000000      6.000000
 -0.333333  0.333333  0.000000      6.000000
  0.333333  0.333333  0.333333      2.000000
[...]
      6     -21.8627      1.00000
      7     -18.1304      1.00000
      8     -18.0965      1.00000
      9     -17.9907      1.00000
     10     -17.9516      1.00000
     11     -17.8032      1.00000
     12     -17.7906      1.00000
     13     -17.7859      1.00000
     14     -17.7459      1.00000
     15     -17.7399      1.00000
     16     -17.7132      1.00000
     17     -17.6910      1.00000
     18     -17.6725      1.00000
     19     -17.6481      1.00000
     20     -17.6166      1.00000
     21     -17.6102      1.00000
     22     -17.5639      1.00000
     23     -17.5581      1.00000
     24     -17.5441      1.00000
     25      -9.1819      1.00000
     26      -9.0072      1.00000
     27      -8.6824      1.00000
     28      -8.2630      1.00000
     29      -8.1824      1.00000
     30      -7.9049      1.00000
     31      -7.0859      1.00000
     32      -7.0791      1.00000
     33      -6.4352      1.00000
     34      -6.2489      1.00000
     35      -6.1084      1.00000
     36      -5.9099      1.00000
     37      -5.8676      1.00000
     38      -5.7442      1.00000
     39      -5.6446      1.00000
     40      -5.6343      1.00000
     41      -5.4342      1.00000
     42      -5.4013      1.00000
     43      -5.2022      1.00000
     44      -5.1548      1.00000
     45      -4.9641      1.00000
     46      -4.9299      1.00000
     47      -4.8355      1.00000
     48      -4.8052      1.00000
     49      -2.9424      1.00000
     50      -2.9239      1.00000
     51      -2.7975      1.00000
     52      -2.7069      1.00000
     53      -2.4667      1.00000
     54      -2.3529      1.00000
     55      -2.2985      1.00000
     56      -2.2820      1.00000
     57      -2.0583      1.00000
     58      -1.9276      1.00000
     59      -1.8556      1.00000
     60      -1.7837      1.00000
[...]
    114      10.4901      0.00000
    115      10.5195      0.00000
    116      10.6856      0.00000
    117      10.7188      0.00000
    118      10.7738      0.00000
    119      10.8460      0.00000
    120      11.0285      0.00000
    121      11.1905      0.00000
    122      11.3473      0.00000
    123      11.6541      0.00000
    124      12.0404      0.00000
    125      12.3831      0.00000
    126      12.8478      0.00000
    127      12.9295      0.00000
    128      13.0273      0.00000
 Fermi energy:         1.1886424362

 spin component 2

[...]

 k-point     6 :      -0.3333    0.3333    0.3333
  band No.  band energies     occupation
      1     -22.0072      1.00000
      2     -21.9946      1.00000
      3     -21.9266      1.00000
      4     -21.9053      1.00000
      5     -21.8681      1.00000
      6     -21.8627      1.00000
      7     -18.1304      1.00000
      8     -18.0965      1.00000
      9     -17.9908      1.00000
     10     -17.9516      1.00000
     11     -17.8032      1.00000
     12     -17.7906      1.00000
     13     -17.7859      1.00000
     14     -17.7460      1.00000
     15     -17.7399      1.00000
     16     -17.7132      1.00000
     17     -17.6910      1.00000
     18     -17.6725      1.00000
     19     -17.6482      1.00000
     20     -17.6166      1.00000
     21     -17.6102      1.00000
     22     -17.5639      1.00000
     23     -17.5582      1.00000
     24     -17.5442      1.00000
     25      -9.1818      1.00000
     26      -9.0071      1.00000
     27      -8.6824      1.00000
     28      -8.2629      1.00000
     29      -8.1823      1.00000
     30      -7.9048      1.00000
     31      -7.0858      1.00000
     32      -7.0791      1.00000
     33      -6.4351      1.00000
     34      -6.2489      1.00000
     35      -6.1084      1.00000
     36      -5.9099      1.00000
     37      -5.8677      1.00000
     38      -5.7442      1.00000
     39      -5.6446      1.00000
     40      -5.6343      1.00000
     41      -5.4342      1.00000
     42      -5.4013      1.00000
     43      -5.2022      1.00000
     44      -5.1549      1.00000
     45      -4.9642      1.00000
     46      -4.9299      1.00000
     47      -4.8356      1.00000
     48      -4.8052      1.00000
     49      -2.9424      1.00000
     50      -2.9238      1.00000
     51      -2.7975      1.00000
     52      -2.7069      1.00000
     53      -2.4667      1.00000
     54      -2.3529      1.00000
     55      -2.2985      1.00000
     56      -2.2820      1.00000
     57      -2.0583      1.00000
     58      -1.9276      1.00000
     59      -1.8555      1.00000
     60      -1.7837      1.00000
[...]
    114      10.4903      0.00000
    115      10.5195      0.00000
    116      10.6858      0.00000
    117      10.7188      0.00000
    118      10.7743      0.00000
    119      10.8461      0.00000
    120      11.0285      0.00000
    121      11.1920      0.00000
    122      11.3563      0.00000
    123      11.6542      0.00000
    124      12.0404      0.00000
    125      12.3873      0.00000
    126      12.8478      0.00000
    127      12.9290      0.00000
    128      13.0286      0.00000

[...]

 soft charge-density along one line, spin component           2
         0         1         2         3         4         5         6         7         8         9
 total charge-density along one line

------------------------ aborting loop because EDIFF is reached ----------------------------------------

[...]

  FORCE on cell =-STRESS in cart. coord.  units (eV):
  Direction    XX          YY          ZZ          XY          YZ          ZX
  Alpha Z   328.64007   328.64007   328.64007
  Ewald   -2597.00475 -2449.68111 -2465.29085     0.00407     0.00356   -47.97320
  Hartree  1529.45120  1628.88918  1618.34808     0.00006    -0.00018   -32.37714
  E(xc)    -903.30562  -903.30625  -903.30616     0.00000    -0.00002     0.00023
  Local   -2068.75842 -2314.66484 -2288.60471    -0.00348    -0.00128    80.06979
  n-local  -165.36267  -162.31592  -162.69733    -0.03401     0.06057    -1.01892
  augment    70.49941    70.26964    70.29412    -0.00738    -0.02284     0.07489
  Kinetic  3805.59956  3801.78277  3802.46837     0.10642    -0.17649     1.42980
  Fock        0.00000     0.00000     0.00000     0.00000     0.00000     0.00000
  Total      -0.13260    -0.33234    -0.31116    -0.00000    -0.00000     0.06503
  in kB      -0.51787    -1.29792    -1.21522    -0.00000    -0.00000     0.25398

 VOLUME and BASIS-vectors are now :
  energy-cutoff  :      520.00
  volume of cell :      410.24
      direct lattice vectors                 reciprocal lattice vectors
     7.571572284 -4.055507847  0.002847990     0.066056536 -0.123289147 -0.053351273
     7.571573654  4.055508226  0.002844895     0.066056530  0.123289084 -0.053351260
     5.396843863 -0.000000216  6.682068103    -0.000056278  0.000000057  0.149699720

  length of vectors
     8.589287447  8.589288833  8.589293209     0.149699827  0.149699768  0.149699730

 FORCES acting on ions
    electron-ion (+dipol)            ewald-force                    non-local-force                 convergence-correction
   0.152E+02 -.298E-03 0.496E+01   -.155E+02 0.652E-03 -.506E+01   0.323E+00 0.257E-08 0.105E+00   -.148E-01 0.132E-06 -.481E-02
   -.152E+02 -.253E-03 -.496E+01   0.155E+02 -.126E-03 0.506E+01   -.323E+00 -.257E-08 -.105E+00   0.148E-01 -.303E-06 0.481E-02
   -.312E+02 0.174E-03 -.102E+02   0.303E+02 -.167E-03 0.985E+01   0.893E+00 0.710E-08 0.291E+00   0.152E-01 0.304E-06 0.494E-02
   0.312E+02 0.487E-03 0.102E+02   -.303E+02 -.655E-03 -.985E+01   -.893E+00 -.710E-08 -.291E+00   -.152E-01 -.385E-06 -.494E-02
   0.781E+01 0.413E+02 -.711E+01   -.757E+01 -.414E+02 0.637E+01   -.188E+00 0.439E-01 0.798E+00   -.108E+00 -.250E-01 -.108E+00
   -.752E+01 -.127E+02 0.400E+02   0.742E+01 0.134E+02 -.397E+02   0.179E+00 -.730E+00 -.331E+00   -.133E+00 0.722E-01 -.298E-01
   0.146E+02 -.286E+02 -.280E+02   -.148E+02 0.280E+02 0.284E+02   0.203E+00 0.686E+00 -.404E+00   -.146E+00 -.472E-01 0.114E-01
   0.752E+01 0.127E+02 -.400E+02   -.742E+01 -.134E+02 0.397E+02   -.179E+00 0.730E+00 0.331E+00   0.133E+00 -.722E-01 0.298E-01
   -.781E+01 -.413E+02 0.711E+01   0.757E+01 0.414E+02 -.637E+01   0.188E+00 -.439E-01 -.798E+00   0.108E+00 0.250E-01 0.108E+00
   -.146E+02 0.286E+02 0.280E+02   0.148E+02 -.280E+02 -.284E+02   -.203E+00 -.686E+00 0.404E+00   0.146E+00 0.472E-01 -.114E-01
   -.463E+02 0.185E+03 -.474E+02   0.431E+02 -.222E+03 0.599E+02   0.308E+01 0.364E+02 -.126E+02   0.172E+00 0.152E+00 0.135E-01
   -.110E+03 -.661E+02 0.149E+03   0.123E+03 0.731E+02 -.185E+03   -.127E+02 -.700E+01 0.358E+02   0.113E+00 -.410E-01 0.196E+00
   -.109E+02 -.119E+03 -.156E+03   0.382E+01 0.149E+03 0.180E+03   0.683E+01 -.294E+02 -.241E+02   0.194E+00 -.111E+00 -.541E-01
   0.463E+02 -.185E+03 0.474E+02   -.430E+02 0.222E+03 -.599E+02   -.308E+01 -.364E+02 0.126E+02   -.172E+00 -.152E+00 -.135E-01
   0.110E+03 0.661E+02 -.149E+03   -.123E+03 -.731E+02 0.185E+03   0.127E+02 0.700E+01 -.358E+02   -.113E+00 0.410E-01 -.196E+00
   0.109E+02 0.119E+03 0.156E+03   -.383E+01 -.149E+03 -.180E+03   -.683E+01 0.294E+02 0.241E+02   -.194E+00 0.111E+00 0.541E-01
   -.688E+01 0.832E+00 0.183E+03   0.133E+02 0.219E-01 -.223E+03   -.656E+01 -.937E+00 0.402E+02   0.163E+00 0.875E-01 -.761E-01
   0.746E+02 -.153E+03 -.674E+02   -.870E+02 0.187E+03 0.852E+02   0.124E+02 -.344E+02 -.180E+02   0.828E-01 0.627E-01 0.171E+00
   0.750E+02 0.152E+03 -.688E+02   -.870E+02 -.187E+03 0.852E+02   0.119E+02 0.353E+02 -.164E+02   0.130E+00 -.150E+00 0.272E-01
   0.688E+01 -.827E+00 -.183E+03   -.133E+02 -.252E-01 0.223E+03   0.656E+01 0.937E+00 -.402E+02   -.163E+00 -.875E-01 0.761E-01
   0.146E+03 0.462E+02 0.620E+02   -.181E+03 -.563E+02 -.661E+02   0.355E+02 0.101E+02 0.422E+01   -.755E-01 0.484E-01 -.273E-01
   0.164E+03 -.111E+02 0.416E+01   -.199E+03 0.222E+02 -.991E+01   0.350E+02 -.111E+02 0.585E+01   -.638E-01 -.264E-01 -.635E-01
   0.140E+03 -.351E+02 0.802E+02   -.169E+03 0.341E+02 -.103E+03   0.296E+02 0.990E+00 0.225E+02   -.897E-01 -.220E-01 0.162E-01
   -.146E+03 -.462E+02 -.620E+02   0.181E+03 0.564E+02 0.661E+02   -.355E+02 -.101E+02 -.422E+01   0.755E-01 -.484E-01 0.273E-01
   -.164E+03 0.111E+02 -.416E+01   0.199E+03 -.222E+02 0.991E+01   -.350E+02 0.111E+02 -.585E+01   0.638E-01 0.264E-01 0.635E-01
   -.140E+03 0.351E+02 -.802E+02   0.169E+03 -.341E+02 0.103E+03   -.296E+02 -.990E+00 -.225E+02   0.897E-01 0.220E-01 -.162E-01
   -.104E+03 -.820E+02 -.107E+03   0.123E+03 0.942E+02 0.139E+03   -.191E+02 -.123E+02 -.316E+02   -.152E+00 0.856E-01 -.220E+00
   -.158E+03 -.197E+02 0.600E+02   0.192E+03 0.346E+02 -.728E+02   -.337E+02 -.147E+02 0.130E+02   -.205E+00 -.183E+00 -.595E-01
   -.114E+03 0.102E+03 -.751E+02   0.142E+03 -.129E+03 0.823E+02   -.271E+02 0.271E+02 -.735E+01   -.250E+00 0.973E-01 0.814E-01
   0.104E+03 0.820E+02 0.107E+03   -.123E+03 -.942E+02 -.139E+03   0.191E+02 0.123E+02 0.316E+02   0.152E+00 -.856E-01 0.220E+00
   0.158E+03 0.197E+02 -.600E+02   -.192E+03 -.346E+02 0.728E+02   0.337E+02 0.147E+02 -.130E+02   0.205E+00 0.183E+00 0.595E-01
   0.114E+03 -.102E+03 0.751E+02   -.142E+03 0.129E+03 -.823E+02   0.271E+02 -.271E+02 0.735E+01   0.250E+00 -.973E-01 -.814E-01
   -.750E+02 -.152E+03 0.688E+02   0.870E+02 0.187E+03 -.852E+02   -.119E+02 -.353E+02 0.164E+02   -.130E+00 0.150E+00 -.272E-01
   -.746E+02 0.153E+03 0.675E+02   0.870E+02 -.187E+03 -.852E+02   -.124E+02 0.344E+02 0.180E+02   -.828E-01 -.627E-01 -.171E+00
   0.227E-01 -.165E-02 -.493E-02   -.995E-13 -.284E-12 0.171E-12   0.178E-14 -.213E-13 -.107E-13   -.171E-05 -.648E-05 0.557E-05

 POSITION                                       TOTAL-FORCE (eV/Angst)
      2.94692     -0.00000      0.95951         0.009835      0.000000      0.003202
     17.59307     -0.00000      5.72826        -0.009835     -0.000000     -0.003202
      7.22685      0.00000      2.35304        -0.019287     -0.000000     -0.006280
     13.31314      0.00001      4.33472         0.019287      0.000000      0.006280
     12.72232      1.72161      1.66467        -0.052487     -0.034450     -0.055305
     11.16663      1.17950      6.44266        -0.060125      0.048695     -0.031846
     12.08982     -2.90111      3.60725        -0.078599     -0.014244      0.024893
      9.37337     -1.17950      0.24510         0.060125     -0.048695      0.031846
      7.81767     -1.72160      5.02309         0.052487      0.034450      0.055305
      8.45017      2.90111      3.08051         0.078599      0.014244     -0.024893
      8.10177      1.46681      3.18589        -0.048037     -0.017664     -0.052615
      7.95046     -1.18465      3.65059        -0.059627      0.039279     -0.017016
      8.73702     -0.28218      1.23483        -0.069100     -0.021615      0.012076
     12.43822     -1.46682      3.50189         0.048037      0.017664      0.052615
     12.58953      1.18465      3.03716         0.059627     -0.039279      0.017016
     11.80297      0.28216      5.45293         0.069100      0.021615     -0.012076
      9.04691      3.17550      1.76258        -0.012233      0.002097      0.064892
      7.67307     -0.61352      5.98202         0.017618     -0.057766     -0.026791
      9.37590     -2.56197      0.75212         0.018743      0.055669     -0.030245
     11.49309     -3.17550      4.92517         0.012233     -0.002097     -0.064892
      9.78105      0.70705      6.63194         0.069102     -0.013596      0.015764
     11.49287      2.48520      1.37445         0.062482      0.001252      0.036095
     11.11374     -3.19223      2.53894         0.069773      0.012345      0.013703
     10.75891     -0.70705      0.05583        -0.069102      0.013596     -0.015764
      9.04712     -2.48520      5.31330        -0.062482     -0.001252     -0.036095
      9.42627      3.19225      4.14883        -0.069773     -0.012345     -0.013703
      6.50956      1.18521      1.04724         0.025635     -0.079832     -0.003414
      6.35384     -1.47558      1.52546        -0.000963      0.030231      0.078276
      5.71828      0.29038      3.47745         0.041847      0.049601     -0.053204
     14.03044     -1.18522      5.64054        -0.025635      0.079832      0.003414
     14.18614      1.47558      5.16229         0.000963     -0.030231     -0.078276
     14.82170     -0.29037      3.21032        -0.041847     -0.049601      0.053204
     11.16408      2.56198      5.93563        -0.018743     -0.055669      0.030245
     12.86692      0.61353      0.70573        -0.017618      0.057766      0.026791
    total drift:                                0.022655     -0.001658     -0.004922

  FREE ENERGIE OF THE ION-ELECTRON SYSTEM (eV)
  free  energy   TOTEN  =      -221.40473681 eV

  energy  without entropy=     -221.40473681  energy(sigma->0) =     -221.40473681

 d Force = 0.2735198E-01[ 0.322E-02, 0.515E-01]  d Energy = 0.2631377E-01 0.104E-02
 d Force = 0.1319866E+02[ 0.130E+02, 0.134E+02]  d Ewald  = 0.1443178E+02-0.123E+01

 reached required accuracy - stopping structural energy minimisation

 total charge

[...]

 magnetization (x)

# of ion       s       p       d       tot
    1        0.000  -0.000   0.000  -0.000
    2        0.000  -0.000   0.000  -0.000
    3        0.000   0.000   0.000   0.000
    4        0.000   0.000   0.000   0.000
    5        0.000  -0.000   0.000  -0.000
    6        0.000  -0.000   0.000  -0.000
    7        0.000  -0.000   0.000  -0.000
    8        0.000  -0.000   0.000  -0.000
    9        0.000  -0.000   0.000  -0.000
   10        0.000  -0.000   0.000  -0.000
   11       -0.000  -0.000   0.000  -0.000
   12       -0.000  -0.000   0.000  -0.000
   13       -0.000  -0.000   0.000  -0.000
   14       -0.000  -0.000   0.000  -0.000
   15       -0.000  -0.000   0.000  -0.000
   16       -0.000  -0.000   0.000  -0.000
   17        0.000  -0.000   0.000  -0.000
   18        0.000  -0.000   0.000  -0.000
   19        0.000  -0.000   0.000  -0.000
   20        0.000  -0.000   0.000  -0.000
   21        0.000  -0.000   0.000  -0.000
   22        0.000  -0.000   0.000  -0.000
   23        0.000  -0.000   0.000  -0.000
   24        0.000  -0.000   0.000  -0.000
   25        0.000  -0.000   0.000  -0.000
   26        0.000  -0.000   0.000  -0.000
   27        0.000  -0.000   0.000  -0.000
   28        0.000  -0.000   0.000  -0.000
   29        0.000  -0.000   0.000  -0.000
   30        0.000  -0.000   0.000  -0.000
   31        0.000  -0.000   0.000  -0.000
   32        0.000  -0.000   0.000  -0.000
   33        0.000  -0.000   0.000  -0.000
   34        0.000  -0.000   0.000  -0.000
tot          0.000  -0.000   0.000  -0.000

 BZINTS: Fermi energy:    1.188642;  192.000000 electrons
         Band energy:-0.128916E+04;  BLOECHL correction:    0.000000