 vasp.6.4.3 19Mar24 (build Oct 16 2024 18:29:25) complex

 executed on             LinuxIFC date 2025.08.13  19:44:20

 INCAR:
   ALGO = Fast
   EDIFF = 0.00030000000000000003
   ENCUT = 520.0
   IBRION = 2
   ISIF = 3
   ISMEAR = -5
   ISPIN = 2
   LASPH = True
   LORBIT = 11
   LREAL = Auto
   LWAVE = False
   MAGMOM = 6*0.0
   NELM = 100
   NSW = 99
   PREC = Accurate
   SIGMA = 0.05

 POTCAR:   PAW_PBE Al 04Jan2001
 POTCAR:    PAW_PBE Cl 17Jan2003
 POTCAR:   PAW_PBE O 08Apr2002
 POTCAR:   PAW_PBE Al 04Jan2001
   VRHFIN =Al: s2p1

   TITEL  = PAW_PBE Al 04Jan2001
   POMASS =   26.982; ZVAL   =    3.000    mass and valenz
   ENMAX  =  240.300; ENMIN  =  180.225 eV
   QCUT   =   -4.203; QGAM   =    8.405    optimization parameters

   Description
     l     E      TYP  RCUT    TYP  RCUT
     0   .000     23  1.900
     0   .000     23  1.900
     1   .000     23  1.900
     1  1.000     23  1.900
     2   .000      7  1.900

 POTCAR:    PAW_PBE Cl 17Jan2003
   VRHFIN =Cl: s2p5

   TITEL  = PAW_PBE Cl 17Jan2003
   POMASS =   35.453; ZVAL   =    7.000    mass and valenz
   ENMAX  =  280.000; ENMIN  =  196.854 eV
   QCUT   =   -4.392; QGAM   =    8.784    optimization parameters

[...]

 POTCAR:   PAW_PBE O 08Apr2002
   VRHFIN =O: s2p4

   TITEL  = PAW_PBE O 08Apr2002
   POMASS =   16.000; ZVAL   =    6.000    mass and valenz
   ENMAX  =  400.000; ENMIN  =  300.000 eV
   QCUT   =   -5.520; QGAM   =   11.041    optimization parameters

   Description
     l     E      TYP  RCUT    TYP  RCUT
     0   .000     23  1.200
     0  -.700     23  1.200
     1   .000     23  1.520
     1   .600     23  1.520
     2   .000      7  1.500

 Optimization of the real space projectors (new method)

 maximal supplied QI-value         = 19.84
 optimisation between [QCUT,QGAM] = [ 11.51, 23.22] = [ 37.09,150.92] Ry
 Optimized for a Real-space Cutoff    1.18 Angstroem

   l    n(q)    QCUT    max X(q) W(low)/X(q) W(high)/X(q)  e(spline)
   0      8    11.508    13.410    0.14E-04    0.92E-05    0.50E-08
   0      8    11.508   140.052    0.11E-03    0.16E-03    0.39E-07
   1      8    11.508     9.624    0.12E-04    0.31E-04    0.22E-07
   1      8    11.508    53.353    0.21E-03    0.91E-04    0.68E-07
 Optimization of the real space projectors (new method)

[...]

   l    n(q)    QCUT    max X(q) W(low)/X(q) W(high)/X(q)  e(spline)
   0      8    11.508     4.846    0.17E-04    0.72E-06    0.45E-08
   0      8    11.508    64.115    0.84E-04    0.16E-03    0.48E-07
   1      8    11.508     3.092    0.23E-04    0.25E-04    0.20E-07
   1      8    11.508    37.586    0.18E-03    0.67E-04    0.95E-07
 Optimization of the real space projectors (new method)

 maximal supplied QI-value         = 24.76
 optimisation between [QCUT,QGAM] = [ 11.64, 23.27] = [ 37.91,151.63] Ry
 Optimized for a Real-space Cutoff    1.08 Angstroem

   l    n(q)    QCUT    max X(q) W(low)/X(q) W(high)/X(q)  e(spline)
   0      7    11.635     4.192    0.54E-04    0.80E-04    0.26E-07
   0      7    11.635     8.473    0.70E-04    0.40E-03    0.21E-06
   1      7    11.635     2.474    0.39E-04    0.14E-03    0.23E-07
   1      7    11.635     3.912    0.25E-03    0.37E-03    0.22E-06
 PAW_PBE Al 04Jan2001                   :
  PAW_PBE Cl 17Jan2003                  :
 PAW_PBE O 08Apr2002                    :

 POSCAR: Al2 Cl2 O2
  positions in direct lattice

 exchange-correlation table for PE
   RHO(1)=    0.500       N(1)  =     2000
   RHO(2)=  100.500       N(2)  =     4000

 ion  position               nearest neighbor table
   1  0.750  0.250  0.896-   5 1.86   5 1.86   6 1.98   6 1.98   3 2.29   3 2.29   2 2.91   2 2.91
                             2 2.91   2 2.91
   2  0.250  0.750  0.104-   6 1.86   6 1.86   5 1.98   5 1.98   4 2.29   4 2.29   1 2.91   1 2.91
                             1 2.91   1 2.91
   3  0.750  0.750  0.686-   1 2.29   1 2.29
   4  0.250  0.250  0.314-   2 2.29   2 2.29
   5  0.250  0.250  0.951-   1 1.86   1 1.86   2 1.98   2 1.98
   6  0.750  0.750  0.049-   2 1.86   2 1.86   1 1.98   1 1.98

  LATTYP: Found a simple orthorhombic cell.
 ALAT       =     3.1414401500
 B/A-ratio  =     1.1520268308
 C/A-ratio  =     2.5230423696

  Lattice vectors:

 A1 = (   0.0000000000,  -3.1414401500,   0.0000000000)
 A2 = (   3.6190233400,   0.0000000000,   0.0000000000)
 A3 = (   0.0000000000,   0.0000000000,   7.9259866000)

Analysis of symmetry for initial positions (statically):
 Subroutine PRICEL returns:
 Original cell was already a primitive cell.

 Routine SETGRP: Setting up the symmetry group for a
 simple orthorhombic supercell.

 Subroutine GETGRP returns: Found  8 space group operations
 (whereof  2 operations were pure point group operations)
 out of a pool of  8 trial point group operations.

The static configuration has the point symmetry S_2 .
 The point group associated with its full space group is D_2h.

Analysis of symmetry for dynamics (positions and initial velocities):
 Subroutine PRICEL returns:
 Original cell was already a primitive cell.

[...]

The dynamic configuration has the point symmetry S_2 .
 The point group associated with its full space group is D_2h.

Analysis of structural, dynamic, and magnetic symmetry:
 Subroutine PRICEL returns:
 Original cell was already a primitive cell.

 Routine SETGRP: Setting up the symmetry group for a
 simple orthorhombic supercell.

 Subroutine GETGRP returns: Found  8 space group operations
 (whereof  2 operations were pure point group operations)
 out of a pool of  8 trial point group operations.

The overall configuration has the point symmetry S_2 .
 The point group associated with its full space group is D_2h.

 Subroutine INISYM returns: Found  8 space group operations
 (whereof  2 operations are pure point group operations),
 and found     1 'primitive' translations

                                     Primitive cell

  volume of cell :      90.1101

  direct lattice vectors                    reciprocal lattice vectors
     3.619023340  0.000000000  0.000000000     0.276317643  0.000000000  0.000000000
     0.000000000  3.141440150  0.000000000     0.000000000  0.318325339  0.000000000
     0.000000000  0.000000000  7.925986600     0.000000000  0.000000000  0.126167258

  length of vectors
     3.619023340  3.141440150  7.925986600     0.276317643  0.318325339  0.126167258

  position of ions in fractional coordinates (direct lattice)
     0.750000000  0.250000000  0.896373420
     0.250000000  0.750000000  0.103626580
     0.750000000  0.750000000  0.685550880
     0.250000000  0.250000000  0.314449120
     0.250000000  0.250000000  0.951388750
     0.750000000  0.750000000  0.048611250

  ion indices of the primitive-cell ions
   primitive index   ion index
                 1           1
                 2           2
                 3           3
                 4           4
                 5           5
                 6           6

 KPOINTS: pymatgen with grid density = 1057 / numb

Automatic generation of k-mesh.
 Grid dimensions read from file:
 generate k-points for:    6    8    3

 Generating k-lattice:

  Cartesian coordinates                     Fractional coordinates (reciprocal lattice)
     0.046052941  0.000000000  0.000000000     0.166666667  0.000000000  0.000000000
     0.000000000  0.039790667  0.000000000     0.000000000  0.125000000  0.000000000
     0.000000000  0.000000000  0.042055753     0.000000000  0.000000000  0.333333333

  Length of vectors
     0.046052941  0.039790667  0.042055753

  Shift w.r.t. Gamma in fractional coordinates (k-lattice)
     0.000000000  0.000000000  0.000000000

 TETIRR: Found    432 inequivalent tetrahedra from      864

 Subroutine IBZKPT returns following result:

 Found     40 irreducible k-points:

 Following reciprocal coordinates:
            Coordinates               Weight
  0.000000  0.000000  0.000000      1.000000
  0.166667  0.000000  0.000000      2.000000
  0.333333  0.000000  0.000000      2.000000
  0.500000  0.000000  0.000000      1.000000
  0.000000  0.125000  0.000000      2.000000
  0.166667  0.125000  0.000000      4.000000
  0.333333  0.125000  0.000000      4.000000
  0.500000  0.125000  0.000000      2.000000
  0.000000  0.250000  0.000000      2.000000
  0.166667  0.250000  0.000000      4.000000
  0.333333  0.250000  0.000000      4.000000
  0.500000  0.250000  0.000000      2.000000
  0.000000  0.375000  0.000000      2.000000
  0.166667  0.375000  0.000000      4.000000
  0.333333  0.375000  0.000000      4.000000
  0.500000  0.375000  0.000000      2.000000
  0.000000  0.500000  0.000000      1.000000
  0.166667  0.500000  0.000000      2.000000
  0.333333  0.500000  0.000000      2.000000
  0.500000  0.500000  0.000000      1.000000
  0.000000  0.000000  0.333333      2.000000
  0.166667  0.000000  0.333333      4.000000
  0.333333  0.000000  0.333333      4.000000
  0.500000  0.000000  0.333333      2.000000
  0.000000  0.125000  0.333333      4.000000
  0.166667  0.125000  0.333333      8.000000
  0.333333  0.125000  0.333333      8.000000
  0.500000  0.125000  0.333333      4.000000
  0.000000  0.250000  0.333333      4.000000
  0.166667  0.250000  0.333333      8.000000
  0.333333  0.250000  0.333333      8.000000
  0.500000  0.250000  0.333333      4.000000
  0.000000  0.375000  0.333333      4.000000
  0.166667  0.375000  0.333333      8.000000
  0.333333  0.375000  0.333333      8.000000
  0.500000  0.375000  0.333333      4.000000
  0.000000  0.500000  0.333333      2.000000
  0.166667  0.500000  0.333333      4.000000
  0.333333  0.500000  0.333333      4.000000
  0.500000  0.500000  0.333333      2.000000

 Following cartesian coordinates:
            Coordinates               Weight
  0.000000  0.000000  0.000000      1.000000
  0.046053  0.000000  0.000000      2.000000
  0.092106  0.000000  0.000000      2.000000
  0.138159  0.000000  0.000000      1.000000
  0.000000  0.039791  0.000000      2.000000
  0.046053  0.039791  0.000000      4.000000
  0.092106  0.039791  0.000000      4.000000
  0.138159  0.039791  0.000000      2.000000
  0.000000  0.079581  0.000000      2.000000
  0.046053  0.079581  0.000000      4.000000
  0.092106  0.079581  0.000000      4.000000
  0.138159  0.079581  0.000000      2.000000
  0.000000  0.119372  0.000000      2.000000
  0.046053  0.119372  0.000000      4.000000
  0.092106  0.119372  0.000000      4.000000
  0.138159  0.119372  0.000000      2.000000
  0.000000  0.159163  0.000000      1.000000
  0.046053  0.159163  0.000000      2.000000
  0.092106  0.159163  0.000000      2.000000
  0.138159  0.159163  0.000000      1.000000
  0.000000  0.000000  0.042056      2.000000
  0.046053  0.000000  0.042056      4.000000
  0.092106  0.000000  0.042056      4.000000
  0.138159  0.000000  0.042056      2.000000
  0.000000  0.039791  0.042056      4.000000
  0.046053  0.039791  0.042056      8.000000
  0.092106  0.039791  0.042056      8.000000
  0.138159  0.039791  0.042056      4.000000
  0.000000  0.079581  0.042056      4.000000
  0.046053  0.079581  0.042056      8.000000
  0.092106  0.079581  0.042056      8.000000
  0.138159  0.079581  0.042056      4.000000
  0.000000  0.119372  0.042056      4.000000
[...]

[...]

 eigenvalues of (default mixing * dielectric matrix)
  average eigenvalue GAMMA=   0.9499
  0.9499

[...]

 average (electrostatic) potential at core
  the test charge radii are     1.0406  0.9406  0.7215
  (the norm of the test charge is              1.0000)
       1 -75.9490       2 -75.9490       3 -91.0581       4 -91.0581       5 -71.2216
       6 -71.2216

 E-fermi :   2.5729     XC(G=0):  -9.4935     alpha+bet :-11.2881

 val. band max:        2.4853926464   @ k =   0.0000   0.5000   0.0000
 cond. band min:       8.3782128096   @ k =   0.0000   0.0000   0.0000
 fundamental gap:      5.8928201632
 Fermi energy:         2.5728607152

 spin component 1

 k-point     1 :       0.0000    0.0000    0.0000
  band No.  band energies     occupation
      1     -16.5662      1.00000
      2     -13.8882      1.00000
      3     -11.3534      1.00000
      4     -11.3334      1.00000
      5      -3.3759      1.00000
      6      -2.3469      1.00000
      7      -1.4016      1.00000
      8      -0.6568      1.00000
      9       0.1964      1.00000
     10       0.5353      1.00000
     11       1.6681      1.00000
     12       1.9342      1.00000
     13       2.0926      1.00000
     14       2.1842      1.00000
     15       2.2006      1.00000
     16       2.2725      1.00000
     17       8.3782      0.00000
     18       9.5670      0.00000
     19      10.5073      0.00000
     20      11.4294      0.00000
     21      12.4026      0.00000
     22      12.6316      0.00000
     23      13.4880      0.00000
     24      13.6933      0.00000
     25      14.1283      0.00000
     26      14.2386      0.00000
     27      14.4867      0.00000
     28      15.0218      0.00000
     29      16.8827      0.00000
     30      17.2520      0.00000
     31      19.3776      0.00000
     32      20.5290      0.00000

[...]

 k-point    40 :       0.5000    0.5000    0.3333
  band No.  band energies     occupation
      1     -14.8866      1.00000
      2     -14.8866      1.00000
      3     -10.4591      1.00000
      4     -10.4591      1.00000
      5      -4.4146      1.00000
      6      -4.4146      1.00000
      7      -1.2665      1.00000
      8      -1.2665      1.00000
      9      -0.9164      1.00000
     10      -0.9164      1.00000
     11       0.9052      1.00000
     12       0.9052      1.00000
     13       1.4712      1.00000
     14       1.4712      1.00000
     15       1.7141      1.00000
     16       1.7141      1.00000
     17       9.7788      0.00000
     18       9.7788      0.00000
     19      10.3846      0.00000
     20      10.3846      0.00000
     21      13.0818      0.00000
     22      13.0818      0.00000
     23      13.4365      0.00000
     24      13.4365      0.00000
     25      16.4463      0.00000
     26      16.4463      0.00000
     27      17.3955      0.00000
     28      17.3955      0.00000
     29      17.5250      0.00000
     30      17.5250      0.00000
     31      19.0978      0.00000
     32      19.0979      0.00000
 Fermi energy:         2.5728607152

[...]

 soft charge-density along one line, spin component           1
         0         1         2         3         4         5         6         7         8         9
 total charge-density along one line

[...]

------------------------ aborting loop because EDIFF is reached ----------------------------------------

 total charge

# of ion       s       p       d       tot
    1        0.308   0.374   0.000   0.682
    2        0.308   0.374   0.000   0.682
    3        1.602   3.589   0.000   5.191
    4        1.602   3.589   0.000   5.191
    5        1.552   3.627   0.000   5.180
    6        1.552   3.627   0.000   5.180
tot          6.925  15.180   0.000  22.105

 magnetization (x)

[...]

  FORCE on cell =-STRESS in cart. coord.  units (eV):
  Direction    XX          YY          ZZ          XY          YZ          ZX
  Alpha Z    37.07979    37.07979    37.07979
  Ewald    -150.58995  -119.32089  -901.17883     0.00000     0.00000    -0.00000
  Hartree   423.07141   446.19440  -174.03670    -0.00000    -0.00000    -0.00000
  E(xc)    -132.67385  -132.12380  -132.30824     0.00000     0.00000    -0.00000
  Local    -837.11602  -882.62538   513.53829     0.00000    -0.00000     0.00000
  n-local   148.65324   146.84224   145.86534    -0.00351    -0.02519    -0.03189
  augment   -27.98898   -26.38475   -26.17385    -0.00000     0.00000    -0.00000
  Kinetic   541.97198   532.31232   539.21745    -1.56611    -0.04344    -0.06707
  Fock        0.00000     0.00000     0.00000     0.00000     0.00000     0.00000
  Total       2.40762     1.97394     2.00325     0.00000     0.00000     0.00000
  in kB      42.80801    35.09700    35.61822     0.00000     0.00000     0.00000

 VOLUME and BASIS-vectors are now :
  energy-cutoff  :      520.00
  volume of cell :       90.11
      direct lattice vectors                 reciprocal lattice vectors
     3.619023340  0.000000000  0.000000000     0.276317643  0.000000000  0.000000000
     0.000000000  3.141440150  0.000000000     0.000000000  0.318325339  0.000000000
     0.000000000  0.000000000  7.925986600     0.000000000  0.000000000  0.126167258

[...]

 FORCES acting on ions
    electron-ion (+dipol)            ewald-force                    non-local-force                 convergence-correction
   -.385E-13 -.135E-11 0.965E+02   -.128E-14 0.348E-14 -.953E+02   0.614E-22 -.676E-19 -.139E+01   0.136E-15 -.992E-15 -.144E-01
   -.267E-13 -.354E-12 -.965E+02   0.486E-14 0.300E-14 0.953E+02   -.122E-20 0.172E-19 0.139E+01   -.130E-15 0.125E-14 0.144E-01
   0.109E-12 -.745E-12 0.260E+03   0.408E-14 -.596E-15 -.262E+03   0.410E-18 -.343E-18 0.232E+01   0.156E-13 0.519E-14 -.106E+00
   0.885E-13 0.621E-12 -.260E+03   -.770E-15 0.107E-14 0.262E+03   0.247E-18 0.300E-19 -.232E+01   0.351E-14 -.124E-13 0.106E+00
   0.152E-12 0.294E-13 0.106E+03   0.832E-14 -.219E-14 -.112E+03   0.172E-18 0.908E-20 0.555E+01   0.183E-13 -.170E-13 -.325E-01
   0.306E-12 -.182E-11 -.106E+03   -.137E-13 0.173E-14 0.112E+03   0.190E-18 0.993E-20 -.555E+01   0.159E-13 0.106E-13 0.325E-01
   0.590E-12 -.362E-11 -.550E-11   0.149E-14 0.650E-14 0.142E-13   0.102E-17 -.344E-18 0.000E+00   0.532E-13 -.134E-13 0.530E-12

 POSITION                                       TOTAL-FORCE (eV/Angst)
      2.71427      0.78536      7.10464         0.000000      0.000000     -0.155415
      0.90476      2.35608      0.82134         0.000000     -0.000000      0.155415
      2.71427      2.35608      5.43367        -0.000000      0.000000     -0.215647
      0.90476      0.78536      2.49232         0.000000     -0.000000      0.215647
      0.90476      0.78536      7.54069        -0.000000      0.000000     -0.119270
      2.71427      2.35608      0.38529         0.000000     -0.000000      0.119270
    total drift:                                0.000000     -0.000000     -0.000000

  FREE ENERGIE OF THE ION-ELECTRON SYSTEM (eV)
  free  energy   TOTEN  =       -35.13301493 eV

  energy  without entropy=      -35.13301493  energy(sigma->0) =      -35.13301493

[...]

 d Force =-0.9516747E-03[-0.102E-01, 0.832E-02]  d Energy = 0.1637542E-01-0.173E-01
 d Force = 0.8106530E+01[ 0.791E+01, 0.830E+01]  d Ewald  =-0.1104880E+02 0.192E+02

 Steepest descent step on ions:
 trial-energy change:   -0.016375  1 .order   -0.018025   -0.118393    0.082343
  (g-gl).g = 0.118E+00      g.g   = 0.118E+00  gl.gl    = 0.000E+00
 g(Force)  = 0.819E-02   g(Stress)= 0.110E+00 ortho     = 0.000E+00
 gamma     =   0.00000
 trial     =   1.00000
 opt step  =   0.57777  (harmonic =   0.58979) maximal distance =0.00601072
 next E    =   -35.166899   (d E  =  -0.03388)

--------------------------------------- Ionic step        3  -------------------------------------------

[...]

 eigenvalue-minimisations  :  6896
 total energy-change (2. order) :-0.9498248E-01  (-0.1463602E+00)
 number of electron      31.9999988 magnetization       0.0000000
 augmentation part       -0.6349715 magnetization       0.0000155

[...]

 Broyden mixing:
  rms(total) = 0.52900E-02    rms(broyden)= 0.52888E-02
  rms(prec ) = 0.76184E-02
  weight for this iteration     100.00

 eigenvalues of (default mixing * dielectric matrix)
  average eigenvalue GAMMA=   1.5876
  1.2266  1.2266  2.3096

[...]

--------------------------------------- Iteration      3(   5)  ---------------------------------------

[...]

 eigenvalue-minimisations  :  4041
 total energy-change (2. order) : 0.3396952E-04  (-0.4473925E-04)
 number of electron      31.9999988 magnetization       0.0000000
 augmentation part       -0.6239954 magnetization       0.0000005

 Free energy of the ion-electron system (eV)
  alpha Z        PSCENC =        36.00142218
  Ewald energy   TEWEN  =     -1164.73245364
  -Hartree energ DENC   =      -694.27959595
  -exchange      EXHF   =         0.00000000
  -V(xc)+E(xc)   XCENC  =        48.48680390
  PAW double counting   =      1130.95937509    -1071.93149817
  entropy T*S    EENTRO =         0.00000000
  eigenvalues    EBANDS =      -110.91091737
  atomic energy  EATOM  =      1791.23999415
  Solvation  Ediel_sol  =         0.00000000
  free energy    TOTEN  =       -35.16686981 eV

  energy without entropy =      -35.16686981  energy(sigma->0) =      -35.16686981

 average (electrostatic) potential at core
  the test charge radii are     1.0406  0.9406  0.7215
  (the norm of the test charge is              1.0000)
       1 -76.3208       2 -76.3208       3 -91.3110       4 -91.3110       5 -71.4574
       6 -71.4574

 E-fermi :   2.2436     XC(G=0):  -9.3587     alpha+bet :-10.9598

 val. band max:        2.2072350135   @ k =   0.0000   0.5000   0.0000
 cond. band min:       7.8242637051   @ k =   0.0000   0.0000   0.0000
 fundamental gap:      5.6170286916
 Fermi energy:         2.2435570598

[...]

 k-point    40 :       0.5000    0.5000    0.3333
  band No.  band energies     occupation
      1     -15.0004      1.00000
      2     -15.0004      1.00000
      3     -10.6934      1.00000
      4     -10.6934      1.00000
      5      -4.4736      1.00000
      6      -4.4736      1.00000
      7      -1.4218      1.00000
      8      -1.4218      1.00000
      9      -1.0642      1.00000
     10      -1.0642      1.00000
     11       0.7123      1.00000
     12       0.7123      1.00000
     13       1.2245      1.00000
     14       1.2245      1.00000
     15       1.4873      1.00000
     16       1.4873      1.00000
     17       9.3799      0.00000
     18       9.3799      0.00000
     19      10.0985      0.00000
     20      10.0985      0.00000
     21      12.5772      0.00000
     22      12.5772      0.00000
     23      13.0885      0.00000
     24      13.0885      0.00000
     25      15.9070      0.00000
     26      15.9070      0.00000
     27      16.8397      0.00000
     28      16.8397      0.00000
     29      16.9209      0.00000
     30      16.9209      0.00000
     31      18.5941      0.00000
     32      18.5941      0.00000
 Fermi energy:         2.2435570598

 spin component 2

[...]

 k-point    40 :       0.5000    0.5000    0.3333
  band No.  band energies     occupation
      1     -15.0005      1.00000
      2     -15.0005      1.00000
      3     -10.6934      1.00000
      4     -10.6934      1.00000
      5      -4.4736      1.00000
      6      -4.4736      1.00000
      7      -1.4218      1.00000
      8      -1.4218      1.00000
      9      -1.0641      1.00000
     10      -1.0641      1.00000
     11       0.7122      1.00000
     12       0.7122      1.00000
     13       1.2246      1.00000
     14       1.2246      1.00000
     15       1.4873      1.00000
     16       1.4873      1.00000
     17       9.3799      0.00000
     18       9.3799      0.00000
     19      10.0985      0.00000
     20      10.0985      0.00000
     21      12.5772      0.00000
     22      12.5772      0.00000
     23      13.0885      0.00000
     24      13.0885      0.00000
     25      15.9070      0.00000
     26      15.9070      0.00000
     27      16.8397      0.00000
     28      16.8397      0.00000
     29      16.9209      0.00000
     30      16.9209      0.00000
     31      18.5941      0.00000
     32      18.5941      0.00000

[...]

 soft charge-density along one line, spin component           2
         0         1         2         3         4         5         6         7         8         9
 total charge-density along one line

------------------------ aborting loop because EDIFF is reached ----------------------------------------

[...]

  FORCE on cell =-STRESS in cart. coord.  units (eV):
  Direction    XX          YY          ZZ          XY          YZ          ZX
  Alpha Z    36.00142    36.00142    36.00142
  Ewald    -155.08511  -124.10124  -885.54757     0.00000    -0.00000     0.00000
  Hartree   417.74003   441.18678  -164.55412    -0.00000    -0.00000    -0.00000
  E(xc)    -132.15699  -131.63291  -131.81557     0.00000     0.00000     0.00000
  Local    -825.94156  -871.33867   490.37441     0.00000    -0.00000    -0.00000
  n-local   147.93103   146.05642   145.13408    -0.00741    -0.02423    -0.03017
  augment   -28.04800   -26.41996   -26.21587     0.00000     0.00000    -0.00000
  Kinetic   539.66382   530.26591   536.71443    -1.52295    -0.04406    -0.06737
  Fock        0.00000     0.00000     0.00000     0.00000     0.00000     0.00000
  Total       0.10463     0.01776     0.09121    -0.00000     0.00000     0.00000
  in kB       1.80630     0.30659     1.57453    -0.00000     0.00000     0.00000

 VOLUME and BASIS-vectors are now :
  energy-cutoff  :      520.00
  volume of cell :       92.81
      direct lattice vectors                 reciprocal lattice vectors
     3.659500676  0.000000000  0.000000000     0.273261324 -0.000000000  0.000000000
     0.000000000  3.170246903  0.000000000     0.000000000  0.315432845  0.000000000
     0.000000000  0.000000000  7.999746632     0.000000000  0.000000000  0.125003959

  length of vectors
     3.659500676  3.170246903  7.999746632     0.273261324  0.315432845  0.125003959

 FORCES acting on ions
    electron-ion (+dipol)            ewald-force                    non-local-force                 convergence-correction
   -.384E-13 -.694E-12 0.941E+02   -.321E-15 -.483E-14 -.929E+02   0.163E-20 0.530E-19 -.124E+01   0.124E-14 -.420E-15 0.260E-03
   -.250E-13 -.109E-12 -.941E+02   0.676E-15 0.580E-14 0.929E+02   -.226E-20 -.793E-19 0.124E+01   -.178E-14 0.142E-14 -.260E-03
   0.110E-12 -.749E-12 0.252E+03   0.834E-15 0.279E-14 -.254E+03   -.102E-18 -.343E-19 0.266E+01   0.532E-14 -.846E-14 -.308E-01
   0.102E-12 0.151E-12 -.252E+03   -.184E-14 -.226E-15 0.254E+03   -.288E-19 0.273E-18 -.266E+01   0.914E-14 -.722E-14 0.308E-01
   0.156E-12 0.139E-12 0.104E+03   0.427E-14 -.316E-14 -.110E+03   0.331E-19 0.803E-19 0.553E+01   -.961E-15 -.166E-13 0.104E-02
   0.309E-12 -.132E-11 -.104E+03   -.171E-14 0.463E-14 0.110E+03   0.746E-19 0.781E-19 -.553E+01   0.321E-13 0.691E-14 -.104E-02
   0.615E-12 -.258E-11 0.739E-12   0.190E-14 0.499E-14 -.142E-13   -.236E-19 0.371E-18 0.000E+00   0.451E-13 -.244E-13 -.956E-12

 POSITION                                       TOTAL-FORCE (eV/Angst)
      2.74463      0.79256      7.16634         0.000000     -0.000000     -0.002036
      0.91488      2.37769      0.83341         0.000000      0.000000      0.002036
      2.74463      2.37769      5.47810        -0.000000      0.000000      0.109552
      0.91488      0.79256      2.52165        -0.000000     -0.000000     -0.109552
      0.91488      0.79256      7.60747         0.000000     -0.000000      0.047472
      2.74463      2.37769      0.39227         0.000000     -0.000000     -0.047472
    total drift:                                0.000000     -0.000000     -0.000000

  FREE ENERGIE OF THE ION-ELECTRON SYSTEM (eV)
  free  energy   TOTEN  =       -35.16686981 eV

  energy  without entropy=      -35.16686981  energy(sigma->0) =      -35.16686981

 d Force = 0.2696429E-02[ 0.117E-02, 0.422E-02]  d Energy = 0.1747946E-01-0.148E-01
 d Force =-0.3299041E+01[-0.333E+01,-0.327E+01]  d Ewald  = 0.4693073E+01-0.799E+01

 reached required accuracy - stopping structural energy minimisation

 total charge

[...]

 magnetization (x)

# of ion       s       p       d       tot
    1       -0.000  -0.000   0.000  -0.000
    2       -0.000  -0.000   0.000  -0.000
    3        0.000   0.000   0.000   0.000
    4        0.000   0.000   0.000   0.000
    5       -0.000   0.000   0.000  -0.000
    6       -0.000   0.000   0.000  -0.000
tot         -0.000  -0.000   0.000  -0.000

 BZINTS: Fermi energy:    2.243557;   32.000000 electrons
         Band energy:-0.110911E+03;  BLOECHL correction:    0.000000