 vasp.6.4.3 19Mar24 (build Oct 16 2024 18:29:25) complex

 executed on             LinuxIFC date 2025.08.14  11:22:54

 INCAR:
   ALGO = Normal
   EDIFF = 1e-06
   ENCUT = 520.0
   GGA = Pe
   IBRION = -1
   ICHARG = 1
   ICORELEVEL = 0
   ISMEAR = 0
   ISPIN = 2
   ISYM = 0
   KPAR = 4
   LASPH = True
   LDAU = True
   LDAUTYPE = 2
   LORBIT = 11
   LREAL = Auto
   LVHAR = True
   MAGMOM = 60*0.6
   NCORE = 16
   NEDOS = 3000
   NSW = 0
   NUPDOWN = 0.0
   PREC = Accurate
   SIGMA = 0.05

 POTCAR:   PAW_PBE Al 04Jan2001
 POTCAR:    PAW_PBE Cl 17Jan2003
 POTCAR:   PAW_PBE O 08Apr2002
 POTCAR:   PAW_PBE Al 04Jan2001
   VRHFIN =Al: s2p1

   TITEL  = PAW_PBE Al 04Jan2001
   POMASS =   26.982; ZVAL   =    3.000    mass and valenz
   ENMAX  =  240.300; ENMIN  =  180.225 eV
   QCUT   =   -4.203; QGAM   =    8.405    optimization parameters

   Description
     l     E      TYP  RCUT    TYP  RCUT
     0   .000     23  1.900
     0   .000     23  1.900
     1   .000     23  1.900
     1  1.000     23  1.900
     2   .000      7  1.900

 POTCAR:    PAW_PBE Cl 17Jan2003
   VRHFIN =Cl: s2p5

   TITEL  = PAW_PBE Cl 17Jan2003
   POMASS =   35.453; ZVAL   =    7.000    mass and valenz
   ENMAX  =  280.000; ENMIN  =  196.854 eV
   QCUT   =   -4.392; QGAM   =    8.784    optimization parameters

[...]

 POTCAR:   PAW_PBE O 08Apr2002
   VRHFIN =O: s2p4

   TITEL  = PAW_PBE O 08Apr2002
   POMASS =   16.000; ZVAL   =    6.000    mass and valenz
   ENMAX  =  400.000; ENMIN  =  300.000 eV
   QCUT   =   -5.520; QGAM   =   11.041    optimization parameters

   Description
     l     E      TYP  RCUT    TYP  RCUT
     0   .000     23  1.200
     0  -.700     23  1.200
     1   .000     23  1.520
     1   .600     23  1.520
     2   .000      7  1.500

 Optimization of the real space projectors (new method)

 maximal supplied QI-value         = 19.84
 optimisation between [QCUT,QGAM] = [ 11.51, 23.22] = [ 37.09,150.92] Ry
 Optimized for a Real-space Cutoff    1.18 Angstroem

   l    n(q)    QCUT    max X(q) W(low)/X(q) W(high)/X(q)  e(spline)
   0      8    11.508    13.410    0.14E-04    0.92E-05    0.50E-08
   0      8    11.508   140.052    0.11E-03    0.16E-03    0.39E-07
   1      8    11.508     9.624    0.12E-04    0.31E-04    0.22E-07
   1      8    11.508    53.353    0.21E-03    0.91E-04    0.68E-07
 Optimization of the real space projectors (new method)

[...]

   l    n(q)    QCUT    max X(q) W(low)/X(q) W(high)/X(q)  e(spline)
   0      8    11.508     4.846    0.17E-04    0.72E-06    0.45E-08
   0      8    11.508    64.115    0.84E-04    0.16E-03    0.48E-07
   1      8    11.508     3.092    0.23E-04    0.25E-04    0.20E-07
   1      8    11.508    37.586    0.18E-03    0.67E-04    0.95E-07
 Optimization of the real space projectors (new method)

 maximal supplied QI-value         = 24.76
 optimisation between [QCUT,QGAM] = [ 11.64, 23.27] = [ 37.91,151.63] Ry
 Optimized for a Real-space Cutoff    1.08 Angstroem

   l    n(q)    QCUT    max X(q) W(low)/X(q) W(high)/X(q)  e(spline)
   0      7    11.635     4.192    0.54E-04    0.80E-04    0.26E-07
   0      7    11.635     8.473    0.70E-04    0.40E-03    0.21E-06
   1      7    11.635     2.474    0.39E-04    0.14E-03    0.23E-07
   1      7    11.635     3.912    0.25E-03    0.37E-03    0.22E-06
 PAW_PBE Al 04Jan2001                   :
  PAW_PBE Cl 17Jan2003                  :
 PAW_PBE O 08Apr2002                    :

 POSCAR: Al20 Cl20 O20 -- Bulk
  positions in direct lattice

 exchange-correlation table for PE
   RHO(1)=    0.500       N(1)  =     2000
   RHO(2)=  100.500       N(2)  =     4000

 ion  position               nearest neighbor table
   1  0.802  0.750  0.698-  41 1.88  44 1.88  55 2.00  56 2.00  21 2.32  30 2.32  19 2.94  15 2.94
                            18 2.94  16 2.94   2 3.17  10 3.17
   2  0.902  0.950  0.798-  45 1.88  42 1.88  57 2.00  56 2.00  22 2.32  21 2.32  20 2.94  16 2.94
                            17 2.94  19 2.94   3 3.17   1 3.17
   3  0.002  0.150  0.898-  46 1.88  43 1.88  57 2.00  58 2.00  22 2.32  23 2.32  11 2.94  17 2.94
                            20 2.94  18 2.94   2 3.17   4 3.17
   4  0.102  0.350  0.998-  44 1.88  47 1.88  59 2.00  58 2.00  23 2.32  24 2.32  12 2.94  18 2.94
                            19 2.94  11 2.94   5 3.17   3 3.17
   5  0.202  0.550  0.098-  45 1.88  48 1.88  59 2.00  60 2.00  24 2.32  25 2.32  19 2.94  13 2.94
                            12 2.94  20 2.94   4 3.17   6 3.17
   6  0.302  0.750  0.198-  46 1.88  49 1.88  51 2.00  60 2.00  25 2.32  26 2.32  14 2.94  20 2.94
                            11 2.94  13 2.94   5 3.17   7 3.17
   7  0.402  0.950  0.298-  50 1.88  47 1.88  52 2.00  51 2.00  27 2.32  26 2.32  15 2.94  11 2.94
                            12 2.94  14 2.94   8 3.17   6 3.17
   8  0.502  0.150  0.398-  41 1.88  48 1.88  52 2.00  53 2.00  27 2.32  28 2.32  16 2.94  12 2.94
                            15 2.94  13 2.94   7 3.17   9 3.17
   9  0.602  0.350  0.498-  49 1.88  42 1.88  54 2.00  53 2.00  28 2.32  29 2.32  17 2.94  13 2.94
                            14 2.94  16 2.94  10 3.17   8 3.17
  10  0.702  0.550  0.598-  50 1.88  43 1.88  54 2.00  55 2.00  29 2.32  30 2.32  14 2.94  18 2.94
                            17 2.94  15 2.94   9 3.17   1 3.17
  11  0.098  0.050  0.202-  58 1.88  51 1.88  46 2.00  47 2.00  31 2.32  32 2.32   3 2.94   7 2.94
                             6 2.94   4 2.94  20 3.17  12 3.17
  12  0.198  0.250  0.302-  52 1.88  59 1.88  47 2.00  48 2.00  32 2.32  33 2.32   4 2.94   8 2.94
                             7 2.94   5 2.94  11 3.17  13 3.17
  13  0.298  0.450  0.402-  53 1.88  60 1.88  49 2.00  48 2.00  34 2.32  33 2.32   9 2.94   5 2.94
                             6 2.94   8 2.94  14 3.17  12 3.17
  14  0.398  0.650  0.502-  54 1.88  51 1.88  49 2.00  50 2.00  34 2.32  35 2.32   6 2.94  10 2.94
                             9 2.94   7 2.94  13 3.17  15 3.17
  15  0.498  0.850  0.602-  52 1.88  55 1.88  41 2.00  50 2.00  35 2.32  36 2.32   7 2.94   1 2.94
                             8 2.94  10 2.94  16 3.17  14 3.17
  16  0.598  0.050  0.702-  53 1.88  56 1.88  41 2.00  42 2.00  36 2.32  37 2.32   8 2.94   2 2.94
                             1 2.94   9 2.94  15 3.17  17 3.17
  17  0.698  0.250  0.802-  54 1.88  57 1.88  42 2.00  43 2.00  37 2.32  38 2.32   9 2.94   3 2.94
                             2 2.94  10 2.94  16 3.17  18 3.17
  18  0.798  0.450  0.902-  58 1.88  55 1.88  44 2.00  43 2.00  39 2.32  38 2.32   4 2.94  10 2.94
                             1 2.94   3 2.94  19 3.17  17 3.17
  19  0.898  0.650  0.002-  59 1.88  56 1.88  44 2.00  45 2.00  39 2.32  40 2.32   1 2.94   5 2.94
                             4 2.94   2 2.94  18 3.17  20 3.17
  20  0.998  0.850  0.102-  57 1.88  60 1.88  46 2.00  45 2.00  31 2.32  40 2.32   2 2.94   6 2.94
                             3 2.94   5 2.94  11 3.17  19 3.17
  21  0.958  0.850  0.642-   1 2.32   2 2.32
  22  0.058  0.050  0.742-   2 2.32   3 2.32
  23  0.158  0.250  0.842-   3 2.32   4 2.32
  24  0.258  0.450  0.942-   5 2.32   4 2.32
  25  0.358  0.650  0.042-   6 2.32   5 2.32
  26  0.458  0.850  0.142-   6 2.32   7 2.32
  27  0.558  0.050  0.242-   7 2.32   8 2.32
  28  0.658  0.250  0.342-   8 2.32   9 2.32
  29  0.758  0.450  0.442-  10 2.32   9 2.32
  30  0.858  0.650  0.542-   1 2.32  10 2.32
  31  0.942  0.950  0.258-  11 2.32  20 2.32
  32  0.042  0.150  0.358-  12 2.32  11 2.32
  33  0.142  0.350  0.458-  12 2.32  13 2.32
  34  0.242  0.550  0.558-  13 2.32  14 2.32
  35  0.342  0.750  0.658-  14 2.32  15 2.32
  36  0.442  0.950  0.758-  16 2.32  15 2.32
  37  0.542  0.150  0.858-  17 2.32  16 2.32
  38  0.642  0.350  0.958-  17 2.32  18 2.32
  39  0.742  0.550  0.058-  18 2.32  19 2.32
  40  0.842  0.750  0.158-  19 2.32  20 2.32
  41  0.625  0.950  0.575-   8 1.88   1 1.88  16 2.00  15 2.00
  42  0.725  0.150  0.675-   2 1.88   9 1.88  16 2.00  17 2.00
  43  0.825  0.350  0.775-  10 1.88   3 1.88  17 2.00  18 2.00
  44  0.925  0.550  0.875-   4 1.88   1 1.88  18 2.00  19 2.00
  45  0.025  0.750  0.975-   2 1.88   5 1.88  19 2.00  20 2.00
  46  0.125  0.950  0.075-   3 1.88   6 1.88  11 2.00  20 2.00
  47  0.225  0.150  0.175-   7 1.88   4 1.88  11 2.00  12 2.00
  48  0.325  0.350  0.275-   5 1.88   8 1.88  12 2.00  13 2.00
  49  0.425  0.550  0.375-   9 1.88   6 1.88  13 2.00  14 2.00
  50  0.525  0.750  0.475-   7 1.88  10 1.88  14 2.00  15 2.00
  51  0.275  0.850  0.325-  11 1.88  14 1.88   6 2.00   7 2.00
  52  0.375  0.050  0.425-  15 1.88  12 1.88   7 2.00   8 2.00
  53  0.475  0.250  0.525-  13 1.88  16 1.88   8 2.00   9 2.00
  54  0.575  0.450  0.625-  14 1.88  17 1.88  10 2.00   9 2.00
  55  0.675  0.650  0.725-  18 1.88  15 1.88   1 2.00  10 2.00
  56  0.775  0.850  0.825-  16 1.88  19 1.88   1 2.00   2 2.00
  57  0.875  0.050  0.925-  20 1.88  17 1.88   2 2.00   3 2.00
  58  0.975  0.250  0.025-  11 1.88  18 1.88   3 2.00   4 2.00
  59  0.075  0.450  0.125-  19 1.88  12 1.88   5 2.00   4 2.00
  60  0.175  0.650  0.225-  13 1.88  20 1.88   5 2.00   6 2.00

IMPORTANT INFORMATION: All symmetrisations will be switched off!
NOSYMM: (Re-)initialisation of all symmetry stuff for point group C_1.

                                     Primitive cell

  volume of cell :     928.0923

  direct lattice vectors                    reciprocal lattice vectors
     3.659500676  6.340493806 -7.999746632     0.081978397  0.031543284 -0.062501980
    -3.659500676  9.510740710  0.000000000    -0.109304530  0.063086569  0.000000000
     3.659500676  6.340493806  7.999746632     0.081978397  0.031543284  0.062501980

  length of vectors
    10.843880905 10.190492336 10.843880905     0.107805073  0.126203785  0.107805073

  position of ions in fractional coordinates (direct lattice)
     0.802089726  0.750000000  0.697910274
     0.902089726  0.950000000  0.797910274
     0.002089726  0.150000000  0.897910274
     0.102089726  0.350000000  0.997910274
     0.202089726  0.550000000  0.097910274
     0.302089726  0.750000000  0.197910274
     0.402089726  0.950000000  0.297910274
     0.502089726  0.150000000  0.397910274
     0.602089726  0.350000000  0.497910274
     0.702089726  0.550000000  0.597910274
     0.097910274  0.050000000  0.202089726
     0.197910274  0.250000000  0.302089726
     0.297910274  0.450000000  0.402089726
     0.397910274  0.650000000  0.502089726
     0.497910274  0.850000000  0.602089726
     0.597910274  0.050000000  0.702089726
     0.697910274  0.250000000  0.802089726
     0.797910274  0.450000000  0.902089726
     0.897910274  0.650000000  0.002089726
     0.997910274  0.850000000  0.102089726
     0.957608130  0.850000000  0.642391870
     0.057608130  0.050000000  0.742391870
     0.157608130  0.250000000  0.842391870
     0.257608130  0.450000000  0.942391870
     0.357608130  0.650000000  0.042391870
     0.457608130  0.850000000  0.142391870
     0.557608130  0.050000000  0.242391870
     0.657608130  0.250000000  0.342391870
     0.757608130  0.450000000  0.442391870
     0.857608130  0.650000000  0.542391870
     0.942391870  0.950000000  0.257608130
     0.042391870  0.150000000  0.357608130
     0.142391870  0.350000000  0.457608130
[...]
  in kB       1.29931    -0.30058     1.02703    -0.00198    -0.00000     0.00000

 VOLUME and BASIS-vectors are now :
  energy-cutoff  :      520.00
  volume of cell :      928.09
      direct lattice vectors                 reciprocal lattice vectors
     3.659500676  6.340493806 -7.999746632     0.081978397  0.031543284 -0.062501980
    -3.659500676  9.510740710  0.000000000    -0.109304530  0.063086569  0.000000000
     3.659500676  6.340493806  7.999746632     0.081978397  0.031543284  0.062501980

  length of vectors
    10.843880905 10.190492336 10.843880905     0.107805073  0.126203785  0.107805073

 FORCES acting on ions
    electron-ion (+dipol)            ewald-force                    non-local-force                 convergence-correction
   -.182E-05 -.306E-04 0.941E+02   0.466E-14 -.355E-14 -.929E+02   -.982E-06 -.418E-05 -.125E+01   0.280E-05 0.390E-04 -.281E-04
   -.910E-04 0.172E-04 0.941E+02   -.401E-12 0.341E-12 -.929E+02   0.667E-03 -.199E-02 -.125E+01   -.227E-04 -.138E-04 0.291E-05
   0.153E-03 -.141E-03 0.941E+02   0.297E-11 0.133E-11 -.929E+02   -.207E-02 -.291E-03 -.125E+01   0.364E-05 0.126E-04 -.184E-05
   -.142E-03 0.144E-03 0.941E+02   -.285E-11 0.330E-12 -.929E+02   0.207E-02 0.288E-03 -.125E+01   -.142E-04 -.135E-04 -.500E-05
   0.111E-03 0.105E-05 0.941E+02   0.579E-12 -.273E-11 -.929E+02   -.650E-03 0.199E-02 -.125E+01   -.126E-04 -.125E-04 -.218E-04
   0.216E-05 -.104E-04 0.941E+02   -.412E-12 0.638E-12 -.929E+02   0.314E-05 -.473E-05 -.125E+01   -.719E-05 0.161E-04 -.162E-04
   -.101E-03 0.609E-05 0.941E+02   0.318E-13 0.615E-12 -.929E+02   0.661E-03 -.200E-02 -.125E+01   -.102E-04 0.103E-04 -.421E-05
   0.154E-03 -.120E-03 0.941E+02   0.303E-11 0.119E-11 -.929E+02   -.206E-02 -.272E-03 -.125E+01   -.188E-05 -.314E-04 -.195E-04
   -.172E-03 0.136E-03 0.941E+02   -.288E-11 0.479E-12 -.929E+02   0.205E-02 0.284E-03 -.125E+01   0.337E-04 0.157E-05 -.382E-04
   0.858E-04 -.116E-05 0.941E+02   -.247E-12 -.236E-11 -.929E+02   -.670E-03 0.199E-02 -.125E+01   0.291E-04 -.880E-05 -.566E-04
   0.110E-03 -.719E-06 -.941E+02   0.189E-11 -.863E-12 0.929E+02   -.649E-03 0.200E-02 0.125E+01   -.130E-04 -.154E-04 0.263E-04
   -.130E-04 0.146E-05 -.941E+02   -.191E-12 0.753E-12 0.929E+02   -.125E-04 -.705E-05 0.125E+01   0.237E-04 0.662E-05 0.311E-04
   -.958E-04 0.941E-05 -.941E+02   -.173E-11 0.802E-13 0.929E+02   0.661E-03 -.199E-02 0.125E+01   -.117E-04 0.778E-06 0.370E-04
   0.177E-03 -.126E-03 -.941E+02   0.256E-11 0.119E-11 0.929E+02   -.205E-02 -.278E-03 0.125E+01   -.355E-04 -.176E-04 0.445E-04
   -.120E-03 0.127E-03 -.941E+02   -.303E-11 0.995E-13 0.929E+02   0.210E-02 0.280E-03 0.125E+01   -.604E-04 0.149E-04 0.472E-04
   0.787E-04 -.265E-04 -.941E+02   0.190E-11 -.243E-11 0.929E+02   -.677E-03 0.199E-02 0.125E+01   0.457E-04 0.245E-04 0.111E-04
   -.165E-04 0.154E-04 -.941E+02   -.199E-12 0.758E-12 0.929E+02   -.100E-04 0.355E-05 0.125E+01   0.261E-04 -.211E-04 0.112E-04
   -.136E-03 0.743E-05 -.941E+02   -.130E-11 0.364E-12 0.929E+02   0.626E-03 -.199E-02 0.125E+01   0.586E-04 -.286E-06 0.312E-04
   0.160E-03 -.146E-03 -.941E+02   0.265E-11 0.160E-11 0.929E+02   -.206E-02 -.283E-03 0.125E+01   -.180E-04 0.862E-05 0.182E-04
   -.144E-03 0.137E-03 -.941E+02   -.269E-11 -.160E-11 0.929E+02   0.207E-02 0.284E-03 0.125E+01   -.159E-04 -.671E-06 0.218E-04
   0.623E-05 -.115E-04 0.252E+03   -.188E-11 0.582E-11 -.254E+03   -.914E-05 0.447E-03 0.268E+01   -.544E-05 0.108E-04 0.551E-03
   0.124E-04 0.128E-04 0.252E+03   -.252E-11 0.576E-11 -.254E+03   0.310E-04 0.126E-03 0.268E+01   -.648E-05 -.113E-04 0.548E-03
   0.587E-05 0.160E-04 0.252E+03   0.238E-13 -.142E-13 -.254E+03   0.318E-05 -.185E-05 0.268E+01   -.667E-05 -.125E-04 0.551E-03
   0.825E-05 -.129E-04 0.252E+03   -.222E-11 -.379E-12 -.254E+03   -.275E-04 -.124E-03 0.268E+01   -.127E-04 0.916E-05 0.533E-03
   0.479E-05 0.360E-05 0.252E+03   0.677E-11 -.112E-10 -.254E+03   0.109E-04 -.448E-03 0.268E+01   -.566E-05 -.195E-05 0.516E-03
   -.233E-05 0.123E-04 0.252E+03   0.202E-11 0.513E-11 -.254E+03   -.922E-05 0.445E-03 0.268E+01   0.175E-06 -.917E-05 0.534E-03
   0.113E-04 -.113E-04 0.252E+03   -.315E-11 0.930E-11 -.254E+03   0.242E-04 0.125E-03 0.268E+01   -.626E-06 0.115E-04 0.535E-03
   -.136E-04 -.916E-05 0.252E+03   0.195E-13 -.104E-13 -.254E+03   -.134E-05 -.523E-06 0.268E+01   0.127E-04 0.862E-05 0.507E-03
   -.337E-04 0.101E-04 0.252E+03   -.163E-11 -.391E-11 -.254E+03   -.256E-04 -.124E-03 0.268E+01   0.204E-04 -.111E-04 0.502E-03
   -.137E-04 -.246E-05 0.252E+03   0.284E-11 -.105E-10 -.254E+03   0.120E-04 -.448E-03 0.268E+01   0.920E-05 0.352E-05 0.481E-03
   0.604E-06 -.232E-04 -.252E+03   -.339E-11 -.304E-11 0.254E+03   -.276E-04 -.121E-03 -.268E+01   -.672E-05 0.149E-04 -.544E-03
   -.482E-05 0.408E-05 -.252E+03   0.779E-11 -.556E-11 0.254E+03   0.118E-04 -.447E-03 -.268E+01   0.165E-05 -.414E-05 -.535E-03
   0.859E-05 0.154E-04 -.252E+03   -.260E-11 0.151E-11 0.254E+03   -.140E-04 0.447E-03 -.268E+01   -.439E-05 -.140E-04 -.517E-03
   0.277E-04 -.947E-05 -.252E+03   -.187E-11 0.719E-11 0.254E+03   0.288E-04 0.126E-03 -.268E+01   -.181E-04 0.755E-05 -.514E-03
   0.362E-04 -.153E-05 -.252E+03   -.102E-13 0.899E-14 0.254E+03   -.279E-06 0.788E-06 -.268E+01   -.291E-04 0.686E-06 -.500E-03
   -.100E-04 0.201E-05 -.252E+03   -.685E-11 -.104E-11 0.254E+03   -.246E-04 -.125E-03 -.268E+01   -.158E-06 -.265E-05 -.526E-03
   -.325E-04 -.333E-05 -.252E+03   0.794E-11 -.104E-10 0.254E+03   0.147E-04 -.443E-03 -.268E+01   0.232E-04 -.971E-06 -.561E-03
   -.300E-04 -.703E-05 -.252E+03   -.273E-11 0.633E-11 0.254E+03   -.121E-04 0.447E-03 -.268E+01   0.270E-04 0.631E-05 -.522E-03
   -.624E-05 -.810E-05 -.252E+03   0.159E-11 0.520E-11 0.254E+03   0.257E-04 0.127E-03 -.268E+01   0.129E-04 0.703E-05 -.530E-03
   0.288E-05 0.626E-05 -.252E+03   -.178E-13 -.142E-13 0.254E+03   0.175E-05 0.187E-05 -.268E+01   -.366E-05 -.646E-05 -.550E-03
   -.256E-04 -.294E-04 0.104E+03   -.302E-11 -.230E-10 -.110E+03   -.565E-03 -.144E-03 0.553E+01   -.376E-05 0.154E-04 -.219E-03
   -.435E-04 0.144E-04 0.104E+03   0.172E-11 -.137E-10 -.110E+03   0.170E-02 -.414E-03 0.553E+01   0.232E-04 -.304E-05 -.240E-03
   -.142E-04 -.406E-05 0.104E+03   -.881E-12 0.204E-10 -.110E+03   -.172E-02 0.418E-03 0.553E+01   0.337E-04 -.869E-05 -.223E-03
   0.199E-04 0.783E-05 0.104E+03   0.226E-11 0.162E-10 -.110E+03   0.562E-03 0.136E-03 0.553E+01   0.966E-05 0.825E-05 -.214E-03
   0.208E-04 0.105E-04 0.104E+03   0.320E-11 -.355E-11 -.110E+03   0.799E-05 0.921E-05 0.553E+01   -.220E-04 -.134E-04 -.220E-03
   -.171E-04 -.229E-04 0.104E+03   -.132E-11 -.183E-10 -.110E+03   -.561E-03 -.153E-03 0.553E+01   -.149E-04 0.113E-04 -.211E-03
   -.235E-04 0.171E-04 0.104E+03   0.158E-11 -.140E-10 -.110E+03   0.171E-02 -.418E-03 0.553E+01   0.414E-05 -.430E-05 -.198E-03
   0.172E-04 0.236E-05 0.104E+03   -.228E-11 0.217E-10 -.110E+03   -.172E-02 0.432E-03 0.553E+01   0.531E-05 -.185E-04 -.219E-03
   0.391E-04 0.122E-04 0.104E+03   -.110E-11 0.140E-10 -.110E+03   0.576E-03 0.136E-03 0.553E+01   -.685E-05 0.367E-05 -.226E-03
   0.347E-04 -.183E-05 0.104E+03   -.293E-13 -.555E-13 -.110E+03   0.208E-04 -.403E-06 0.553E+01   -.349E-04 0.133E-05 -.213E-03
   0.311E-04 -.178E-04 -.104E+03   -.984E-11 0.114E-10 0.110E+03   -.171E-02 0.428E-03 -.553E+01   -.107E-04 0.108E-05 0.247E-03
   0.402E-04 0.174E-04 -.104E+03   0.226E-10 0.108E-10 0.110E+03   0.569E-03 0.135E-03 -.553E+01   -.867E-05 0.111E-06 0.252E-03
   -.188E-04 0.630E-05 -.104E+03   0.112E-11 -.330E-11 0.110E+03   -.527E-05 -.818E-05 -.553E+01   0.183E-04 -.247E-05 0.216E-03
   -.540E-04 0.388E-05 -.104E+03   -.220E-10 -.145E-10 0.110E+03   -.582E-03 -.131E-03 -.553E+01   0.244E-04 -.206E-04 0.222E-03
   -.286E-04 -.505E-05 -.104E+03   0.817E-11 -.425E-11 0.110E+03   0.171E-02 -.421E-03 -.553E+01   0.692E-05 0.169E-04 0.224E-03
   0.242E-04 -.361E-04 -.104E+03   -.114E-10 0.104E-10 0.110E+03   -.170E-02 0.408E-03 -.553E+01   -.486E-05 0.255E-04 0.230E-03
   0.389E-04 0.212E-04 -.104E+03   0.194E-10 0.109E-10 0.110E+03   0.573E-03 0.150E-03 -.553E+01   -.834E-05 -.956E-05 0.225E-03
   -.795E-05 0.104E-04 -.104E+03   0.112E-11 -.329E-11 0.110E+03   0.190E-05 0.528E-05 -.553E+01   0.775E-05 -.112E-04 0.248E-03
   -.210E-04 -.111E-04 -.104E+03   -.189E-10 -.145E-10 0.110E+03   -.565E-03 -.149E-03 -.553E+01   -.892E-05 0.141E-06 0.242E-03
   -.124E-04 0.894E-05 -.104E+03   0.976E-11 -.332E-11 0.110E+03   0.171E-02 -.418E-03 -.553E+01   -.842E-05 0.289E-05 0.235E-03
   -.234E-04 -.133E-04 -.148E-03   -.297E-13 -.219E-14 0.412E-12   0.132E-04 0.102E-04 -.501E-04   0.854E-05 0.405E-06 0.208E-03

 POSITION                                       TOTAL-FORCE (eV/Angst)
      2.74463     16.64380     -0.83341         0.000000      0.000004     -0.006514
      2.74463     19.81404     -0.83341         0.000553     -0.001985     -0.003428
      2.74463      7.13306      7.16634        -0.001912     -0.000419     -0.004876
      2.74463     10.30330      7.16634         0.001916      0.000418     -0.004877
     -0.91488      7.13306     -0.83341        -0.000552      0.001983     -0.003432
     -0.91488     10.30330     -0.83341        -0.000002      0.000001     -0.006513
     -0.91488     13.47355     -0.83341         0.000551     -0.001981     -0.003428
      2.74463      7.13306     -0.83341        -0.001913     -0.000423     -0.004880
      2.74463     10.30330     -0.83341         0.001913      0.000421     -0.004884
      2.74463     13.47355     -0.83341        -0.000555      0.001982     -0.003436
      0.91488      2.37769      0.83341        -0.000552      0.001981      0.003433
      0.91488      5.54793      0.83341        -0.000002      0.000001      0.006516
      0.91488      8.71818      0.83341         0.000553     -0.001983      0.003432
      0.91488     11.88843      0.83341        -0.001909     -0.000421      0.004883
      0.91488     15.05867      0.83341         0.001917      0.000422      0.004883
      4.57438      8.71818      0.83341        -0.000552      0.001985      0.003429
      4.57438     11.88843      0.83341        -0.000000     -0.000002      0.006510
      4.57438     15.05867      0.83341         0.000549     -0.001983      0.003432
      0.91488     11.88843     -7.16634        -0.001916     -0.000421      0.004880
      0.91488     15.05867     -7.16634         0.001913      0.000421      0.004878
      2.74463     18.22892     -2.52165        -0.000008      0.000446      0.117186
      2.74463      5.54793      5.47810         0.000037      0.000127      0.116374
      2.74463      8.71818      5.47810         0.000002      0.000002      0.116931
      2.74463     11.88843      5.47810        -0.000032     -0.000128      0.116377
     -0.91488      8.71818     -2.52165         0.000010     -0.000447      0.117198
     -0.91488     11.88843     -2.52165        -0.000011      0.000448      0.117191
      2.74463      5.54793     -2.52165         0.000035      0.000125      0.116371
      2.74463      8.71818     -2.52165        -0.000002     -0.000001      0.116946
      2.74463     11.88843     -2.52165        -0.000039     -0.000125      0.116385
      2.74463     15.05867     -2.52165         0.000007     -0.000447      0.117207
      0.91488     16.64380     -5.47810        -0.000034     -0.000129     -0.116375
      0.91488      3.96281      2.52165         0.000009     -0.000447     -0.117196
      0.91488      7.13306      2.52165        -0.000010      0.000449     -0.117198
      0.91488     10.30330      2.52165         0.000038      0.000124     -0.116381
      0.91488     13.47355      2.52165         0.000007     -0.000000     -0.116948
      0.91488     16.64380      2.52165        -0.000035     -0.000125     -0.116380
      4.57438     10.30330      2.52165         0.000005     -0.000447     -0.117186
      4.57438     13.47355      2.52165        -0.000015      0.000446     -0.117195
      0.91488     10.30330     -5.47810         0.000032      0.000126     -0.116378
      0.91488     13.47355     -5.47810         0.000001      0.000002     -0.116935
      0.91488     16.64380     -0.39227        -0.000595     -0.000158      0.047168
      4.57438     10.30330     -0.39227         0.001677     -0.000403      0.047204
      4.57438     13.47355     -0.39227        -0.001705      0.000405      0.047212
      4.57438     16.64380     -0.39227         0.000592      0.000152      0.047165
      0.91488     13.47355      7.60747         0.000007      0.000006      0.047297
     -2.74463     10.30330     -0.39227        -0.000593     -0.000165      0.047161
      0.91488      3.96281     -0.39227         0.001686     -0.000405      0.047209
      0.91488      7.13306     -0.39227        -0.001693      0.000416      0.047212
      0.91488     10.30330     -0.39227         0.000608      0.000152      0.047170
      0.91488     13.47355     -0.39227         0.000021     -0.000001      0.047310
     -0.91488     11.88843      0.39227        -0.001688      0.000411     -0.047211
      2.74463      5.54793      0.39227         0.000601      0.000152     -0.047164
      2.74463      8.71818      0.39227        -0.000006     -0.000004     -0.047306
      2.74463     11.88843      0.39227        -0.000611     -0.000147     -0.047171
      2.74463     15.05867      0.39227         0.001684     -0.000409     -0.047220
      2.74463     18.22892      0.39227        -0.001685      0.000397     -0.047201
      6.40413     11.88843      0.39227         0.000603      0.000161     -0.047163
      2.74463      8.71818     -7.60747         0.000002      0.000005     -0.047295
     -0.91488      5.54793      0.39227        -0.000595     -0.000160     -0.047166
     -0.91488      8.71818      0.39227         0.001691     -0.000406     -0.047213
    total drift:                               -0.000002     -0.000003      0.000011

  FREE ENERGIE OF THE ION-ELECTRON SYSTEM (eV)
  free  energy   TOTEN  =      -351.69390352 eV

  energy  without entropy=     -351.69390352  energy(sigma->0) =     -351.69390352

 writing wavefunctions

 total charge

[...]

 magnetization (x)

# of ion       s       p       d       tot
    1       -0.000  -0.000   0.000  -0.000
    2       -0.000  -0.000   0.000  -0.000
    3       -0.000  -0.000   0.000  -0.000
    4       -0.000  -0.000   0.000  -0.000
    5       -0.000  -0.000   0.000  -0.000
    6       -0.000  -0.000   0.000  -0.000
    7       -0.000  -0.000   0.000  -0.000
    8       -0.000  -0.000   0.000  -0.000
    9       -0.000  -0.000   0.000  -0.000
   10       -0.000  -0.000   0.000  -0.000
   11       -0.000  -0.000   0.000  -0.000
   12       -0.000  -0.000   0.000  -0.000
   13       -0.000  -0.000   0.000  -0.000
   14       -0.000  -0.000   0.000  -0.000
   15       -0.000  -0.000   0.000  -0.000
   16       -0.000  -0.000   0.000  -0.000
   17       -0.000  -0.000   0.000  -0.000
   18       -0.000  -0.000   0.000  -0.000
   19       -0.000  -0.000   0.000  -0.000
   20       -0.000  -0.000   0.000  -0.000
   21       -0.000  -0.000   0.000  -0.000
   22       -0.000  -0.000   0.000  -0.000
   23       -0.000  -0.000   0.000  -0.000
   24       -0.000  -0.000   0.000  -0.000
   25       -0.000  -0.000   0.000  -0.000
   26       -0.000  -0.000   0.000  -0.000
   27       -0.000  -0.000   0.000  -0.000
   28       -0.000  -0.000   0.000  -0.000
   29       -0.000  -0.000   0.000  -0.000
   30       -0.000  -0.000   0.000  -0.000
   31       -0.000  -0.000   0.000  -0.000
   32       -0.000  -0.000   0.000  -0.000
   33       -0.000  -0.000   0.000  -0.000
   34       -0.000  -0.000   0.000  -0.000
   35       -0.000  -0.000   0.000  -0.000
   36       -0.000  -0.000   0.000  -0.000
   37       -0.000  -0.000   0.000  -0.000
   38       -0.000  -0.000   0.000  -0.000
   39       -0.000  -0.000   0.000  -0.000
   40       -0.000  -0.000   0.000  -0.000
   41       -0.000  -0.000   0.000  -0.000
   42        0.000  -0.000   0.000  -0.000
   43       -0.000  -0.000   0.000  -0.000
   44       -0.000  -0.000   0.000  -0.000
   45        0.000  -0.000   0.000  -0.000
   46        0.000  -0.000   0.000  -0.000
   47       -0.000  -0.000   0.000  -0.000
   48       -0.000  -0.000   0.000  -0.000
   49       -0.000  -0.000   0.000  -0.000
   50       -0.000  -0.000   0.000  -0.000
   51        0.000  -0.000   0.000  -0.000
   52        0.000  -0.000   0.000  -0.000
   53       -0.000  -0.000   0.000  -0.000
   54       -0.000  -0.000   0.000  -0.000
   55       -0.000  -0.000   0.000  -0.000
   56        0.000  -0.000   0.000  -0.000
   57        0.000  -0.000   0.000  -0.000
   58        0.000  -0.000   0.000  -0.000
   59        0.000  -0.000   0.000  -0.000
   60       -0.000  -0.000   0.000  -0.000
tot         -0.000  -0.000   0.000  -0.000