 vasp.6.4.3 19Mar24 (build Oct 16 2024 18:29:25) complex

 executed on             LinuxIFC date 2025.08.15  10:17:40

 INCAR:
   ALGO = Fast
   EDIFF = 0.0007
   ENCUT = 520.0
   IBRION = 2
   ISIF = 3
   ISMEAR = -5
   ISPIN = 2
   LASPH = True
   LDAU = True
   LDAUJ = 0 0 0
   LDAUL = 0 2 0
   LDAUPRINT = 1
   LDAUTYPE = 2
   LDAUU = 0 5.3 0
   LMAXMIX = 4
   LORBIT = 11
   LREAL = Auto
   LWAVE = False
   MAGMOM = 4*0.005 2*3.558 8*0.058
   NELM = 100
   NSW = 99
   PREC = Accurate
   SIGMA = 0.05

 POTCAR:   PAW_PBE Al 04Jan2001
 POTCAR:   PAW_PBE Fe_pv 06Sep2000
 POTCAR:   PAW_PBE O 08Apr2002
 POTCAR:   PAW_PBE Al 04Jan2001
   VRHFIN =Al: s2p1

   TITEL  = PAW_PBE Al 04Jan2001
   POMASS =   26.982; ZVAL   =    3.000    mass and valenz
   ENMAX  =  240.300; ENMIN  =  180.225 eV
   QCUT   =   -4.203; QGAM   =    8.405    optimization parameters

   Description
     l     E      TYP  RCUT    TYP  RCUT
     0   .000     23  1.900
     0   .000     23  1.900
     1   .000     23  1.900
     1  1.000     23  1.900
     2   .000      7  1.900

 POTCAR:   PAW_PBE Fe_pv 06Sep2000
   VRHFIN =Fe:  3pd7s1

   TITEL  = PAW_PBE Fe_pv 06Sep2000
   POMASS =   55.847; ZVAL   =   14.000    mass and valenz
   ENMAX  =  293.238; ENMIN  =  219.929 eV
   QCUT   =   -4.642; QGAM   =    9.285    optimization parameters

[...]

 POTCAR:   PAW_PBE O 08Apr2002
   VRHFIN =O: s2p4

   TITEL  = PAW_PBE O 08Apr2002
   POMASS =   16.000; ZVAL   =    6.000    mass and valenz
   ENMAX  =  400.000; ENMIN  =  300.000 eV
   QCUT   =   -5.520; QGAM   =   11.041    optimization parameters

   Description
     l     E      TYP  RCUT    TYP  RCUT
     0   .000     23  1.200
     0  -.700     23  1.200
     1   .000     23  1.520
     1   .600     23  1.520
     2   .000      7  1.500

 Optimization of the real space projectors (new method)

 maximal supplied QI-value         = 19.84
 optimisation between [QCUT,QGAM] = [ 11.51, 23.22] = [ 37.09,150.92] Ry
 Optimized for a Real-space Cutoff    1.18 Angstroem

   l    n(q)    QCUT    max X(q) W(low)/X(q) W(high)/X(q)  e(spline)
   0      8    11.508    13.410    0.14E-04    0.92E-05    0.50E-08
   0      8    11.508   140.052    0.11E-03    0.16E-03    0.39E-07
   1      8    11.508     9.624    0.12E-04    0.31E-04    0.22E-07
   1      8    11.508    53.353    0.21E-03    0.91E-04    0.68E-07
 Optimization of the real space projectors (new method)

[...]

   l    n(q)    QCUT    max X(q) W(low)/X(q) W(high)/X(q)  e(spline)
   1     10    11.565     4.550    0.21E-05    0.66E-06    0.28E-07
   1     10    11.565     5.234    0.44E-04    0.87E-04    0.16E-06
   2      9    11.565     3.960    0.23E-04    0.11E-05    0.56E-07
   2      9    11.565    29.565    0.22E-03    0.64E-04    0.31E-06
   0     10    11.565    23.582    0.16E-04    0.27E-05    0.12E-07
   0     10    11.565    39.747    0.24E-04    0.76E-05    0.87E-07
 Optimization of the real space projectors (new method)

 maximal supplied QI-value         = 24.76
 optimisation between [QCUT,QGAM] = [ 11.64, 23.27] = [ 37.91,151.63] Ry
 Optimized for a Real-space Cutoff    1.08 Angstroem

   l    n(q)    QCUT    max X(q) W(low)/X(q) W(high)/X(q)  e(spline)
   0      7    11.635     4.192    0.54E-04    0.80E-04    0.26E-07
   0      7    11.635     8.473    0.70E-04    0.40E-03    0.21E-06
   1      7    11.635     2.474    0.39E-04    0.14E-03    0.23E-07
   1      7    11.635     3.912    0.25E-03    0.37E-03    0.22E-06
 PAW_PBE Al 04Jan2001                   :
 PAW_PBE Fe_pv 06Sep2000                :
 PAW_PBE O 08Apr2002                    :

 POSCAR: Al4 Fe2 O8
  positions in direct lattice

 exchange-correlation table for PE
   RHO(1)=    0.500       N(1)  =     2000
   RHO(2)=  100.500       N(2)  =     4000

 ion  position               nearest neighbor table
   1  0.500  0.500  0.500-   9 1.92   8 1.92  10 1.92  12 1.92  11 1.92  14 1.92   2 2.87   4 2.87
                             3 2.87   2 2.87   4 2.87   3 2.87
   2  0.500  0.500  0.000-  10 1.92  13 1.92   9 1.92  11 1.92  12 1.92   7 1.92   1 2.87   3 2.87
                             4 2.87   1 2.87   3 2.87   4 2.87
   3  0.500  0.000  0.500-  13 1.92  10 1.92   8 1.92  14 1.92  12 1.92   7 1.92   4 2.87   2 2.87
                             1 2.87   4 2.87   2 2.87   1 2.87
   4  0.000  0.500  0.500-   8 1.92   9 1.92  13 1.92   7 1.92  11 1.92  14 1.92   3 2.87   1 2.87
                             2 2.87   3 2.87   1 2.87   2 2.87
   5  0.875  0.875  0.875-  14 1.97   7 1.97  11 1.97  12 1.97
   6  0.125  0.125  0.125-   8 1.97   9 1.97  13 1.97  10 1.97
   7  0.735  0.735  0.735-   4 1.92   3 1.92   2 1.92   5 1.97
   8  0.265  0.265  0.704-   4 1.92   1 1.92   3 1.92   6 1.97
   9  0.265  0.704  0.265-   1 1.92   4 1.92   2 1.92   6 1.97
  10  0.704  0.265  0.265-   2 1.92   3 1.92   1 1.92   6 1.97
  11  0.735  0.296  0.735-   2 1.92   4 1.92   1 1.92   5 1.97
  12  0.296  0.735  0.735-   1 1.92   2 1.92   3 1.92   5 1.97
  13  0.265  0.265  0.265-   3 1.92   2 1.92   4 1.92   6 1.97
  14  0.735  0.735  0.296-   3 1.92   4 1.92   1 1.92   5 1.97

  LATTYP: Found a face centered cubic cell.
 ALAT       =     8.1267078815

  Lattice vectors:

 A1 = (   4.9765731000,   0.0000079900,   2.8732203400)
 A2 = (   1.6588623600,   4.6919569000,   2.8732223400)
 A3 = (  -0.0000010000,   0.0000020000,   5.7464406900)

Analysis of symmetry for initial positions (statically):
 Subroutine PRICEL returns:
 Original cell was already a primitive cell.

 Routine SETGRP: Setting up the symmetry group for a
 face centered cubic supercell.

 Subroutine GETGRP returns: Found 24 space group operations
 (whereof  6 operations were pure point group operations)
 out of a pool of 48 trial point group operations.

The static configuration has the point symmetry C_3v.
 The point group associated with its full space group is T_d .

Analysis of symmetry for dynamics (positions and initial velocities):
 Subroutine PRICEL returns:
 Original cell was already a primitive cell.

[...]

The dynamic configuration has the point symmetry C_3v.
 The point group associated with its full space group is T_d .

Analysis of structural, dynamic, and magnetic symmetry:
 Subroutine PRICEL returns:
 Original cell was already a primitive cell.

 Routine SETGRP: Setting up the symmetry group for a
 face centered cubic supercell.

 Subroutine GETGRP returns: Found 24 space group operations
 (whereof  6 operations were pure point group operations)
 out of a pool of 48 trial point group operations.

The overall configuration has the point symmetry C_3v.
 The point group associated with its full space group is T_d .

 Subroutine INISYM returns: Found 24 space group operations
 (whereof  6 operations are pure point group operations),
 and found     1 'primitive' translations

                                     Primitive cell

  volume of cell :     134.1785

  direct lattice vectors                    reciprocal lattice vectors
     4.976573100  0.000007990  2.873220340     0.200941567 -0.071043827  0.000000060
     1.658862360  4.691956900  2.873222340    -0.000000299  0.213130839 -0.000000074
    -0.000001000  0.000002000  5.746440690    -0.100470634 -0.071043580  0.174020771

  length of vectors
     5.746448898  5.746450252  5.746440690     0.213130802  0.213130839  0.213130869

  position of ions in fractional coordinates (direct lattice)
     0.499997620  0.499997620  0.499997620
     0.499997620  0.499997620  0.000007140
     0.499997620  0.000007140  0.499997620
     0.000007140  0.499997620  0.499997620
     0.875000000  0.875000000  0.875000000
     0.125000000  0.125000000  0.125000000
     0.734767770  0.734765770  0.734766770
     0.265239590  0.265240590  0.704281220
     0.265238590  0.704281220  0.265240590
     0.704281220  0.265238590  0.265239590
     0.734766770  0.295700680  0.734767770
     0.295700680  0.734766770  0.734765770
     0.265240590  0.265239590  0.265238590
     0.734765770  0.734767770  0.295699680

  ion indices of the primitive-cell ions
   primitive index   ion index
                 1           1
                 2           2
                 3           3
                 4           4
                 5           5
                 6           6
                 7           7
                 8           8
                 9           9
                10          10
                11          11
                12          12
                13          13
                14          14

 KPOINTS: pymatgen with grid density = 1656 / numb

Automatic generation of k-mesh.
 Grid dimensions read from file:
 generate k-points for:    4    4    4

 Generating k-lattice:

  Cartesian coordinates                     Fractional coordinates (reciprocal lattice)
     0.050235392 -0.017760957  0.000000015     0.250000000 -0.000000000 -0.000000000
    -0.000000075  0.053282710 -0.000000019    -0.000000000  0.250000000 -0.000000000
    -0.025117658 -0.017760895  0.043505193    -0.000000000 -0.000000000  0.250000000

  Length of vectors
     0.053282700  0.053282710  0.053282717

  Shift w.r.t. Gamma in fractional coordinates (k-lattice)
     0.000000000  0.000000000  0.000000000

 TETIRR: Found      9 inequivalent tetrahedra from      384

 Subroutine IBZKPT returns following result:

 Found      8 irreducible k-points:

 Following reciprocal coordinates:
            Coordinates               Weight
  0.000000  0.000000  0.000000      1.000000
  0.250000  0.000000  0.000000      8.000000
  0.500000 -0.000000 -0.000000      4.000000
  0.250000  0.250000  0.000000      6.000000
  0.500000  0.250000  0.000000     24.000000
 -0.250000  0.250000 -0.000000     12.000000
  0.500000  0.500000 -0.000000      3.000000
 -0.250000  0.500000  0.250000      6.000000

 Following cartesian coordinates:
            Coordinates               Weight
  0.000000  0.000000  0.000000      1.000000
  0.050235 -0.017761  0.000000      8.000000
  0.100471 -0.035522  0.000000      4.000000
  0.050235  0.035522 -0.000000      6.000000
  0.100471  0.017761  0.000000     24.000000
 -0.050235  0.071044 -0.000000     12.000000
  0.100471  0.071044 -0.000000      3.000000
 -0.075353  0.106565  0.043505      6.000000

 SYSTEM =  unknown system
 POSCAR =  Al4 Fe2 O8

 Startparameter for this run:
   NWRITE =      2    write-flag & timer
   PREC   = accura    normal or accurate (medium, high low for compatibility)
   ISTART =      0    job   : 0-new  1-cont  2-samecut
   ICHARG =      2    charge: 1-file 2-atom 10-const
   ISPIN  =      2    spin polarized calculation?
   LNONCOLLINEAR =      F non collinear calculations
   LSORBIT =      F    spin-orbit coupling
   INIWAV =      1    electr: 0-lowe 1-rand  2-diag
   LASPH  =      T    aspherical Exc in radial PAW
 Electronic Relaxation 1
   ENCUT  =  520.0 eV  38.22 Ry    6.18 a.u.  10.68 10.68 10.68*2*pi/ulx,y,z
   ENINI  =  520.0     initial cutoff
   ENAUG  =  605.4 eV  augmentation charge cutoff
   NELM   =    100;   NELMIN=  2; NELMDL= -5     # of ELM steps
   EDIFF  = 0.7E-03   stopping-criterion for ELM
   LREAL  =      T    real-space projection
   NLSPLINE    = F    spline interpolate recip. space projectors
[...]
|     using a different smearing scheme ISMEAR = 1 or 2 for metals in         |
|     relaxations.                                                            |

[...]

 d Force = 0.1387492E-02[ 0.244E-02, 0.332E-03]  d Energy = 0.6129788E-01-0.599E-01
 d Force = 0.1066058E+01[ 0.104E+01, 0.109E+01]  d Ewald  =-0.1269781E+03 0.128E+03

 Steepest descent step on ions:
 trial-energy change:   -0.061298  1 .order   -0.110658   -0.418675    0.197360
  (g-gl).g = 0.419E+00      g.g   = 0.419E+00  gl.gl    = 0.000E+00
 g(Force)  = 0.325E-03   g(Stress)= 0.418E+00 ortho     = 0.000E+00
 gamma     =   0.00000
 trial     =   1.00000
 opt step  =   0.56124  (harmonic =   0.67963) maximal distance =0.00082457
 next E    =   -99.339120   (d E  =  -0.10876)

[...]

 d Force =-0.8777443E-03[-0.717E-03,-0.104E-02]  d Energy = 0.6075211E-01-0.616E-01
 d Force =-0.4463906E+00[-0.452E+00,-0.441E+00]  d Ewald  = 0.5504650E+02-0.555E+02

[...]

 d Force = 0.1107085E-02[-0.541E-02, 0.763E-02]  d Energy =-0.8452839E-02 0.956E-02
 d Force = 0.4703149E+01[ 0.460E+01, 0.481E+01]  d Ewald  = 0.2273728E+02-0.180E+02

 Steepest descent step on ions:
 trial-energy change:    0.008453  1 .order    0.006668   -0.016509    0.029845
  (g-gl).g = 0.802E-01      g.g   = 0.181E-01  gl.gl    = 0.419E+00
 g(Force)  = 0.839E-02   g(Stress)= 0.971E-02 ortho     =-0.621E-01
 gamma     =   0.00000
 trial     =   0.91225
 opt step  =   0.32490  (harmonic =   0.32490) maximal distance =0.00231105
 next E    =   -99.355346   (d E  =  -0.00294)

|           W    W    AA    RRRRR   N    N  II  N    N   GGGG   !!!           |
|           W    W   A  A   R    R  NN   N  II  NN   N  G    G  !!!           |
|           W    W  A    A  R    R  N N  N  II  N N  N  G       !!!           |
|           W WW W  AAAAAA  RRRRR   N  N N  II  N  N N  G  GGG   !            |
|           WW  WW  A    A  R   R   N   NN  II  N   NN  G    G                |
|           W    W  A    A  R    R  N    N  II  N    N   GGGG   !!!           |
|     Tetrahedron method does not include variations of the Fermi             |
|     occupations, so forces and stress will be inaccurate. We suggest        |
|     using a different smearing scheme ISMEAR = 1 or 2 for metals in         |
|     relaxations.                                                            |

--------------------------------------- Ionic step        5  -------------------------------------------

[...]

 eigenvalue-minimisations  :  2273
 total energy-change (2. order) : 0.2697012E-01  (-0.1204809E-01)
 number of electron      88.0000041 magnetization       8.0000006
 augmentation part       22.2000185 magnetization       5.5894072

[...]

 Broyden mixing:
  rms(total) = 0.24710E-01    rms(broyden)= 0.24702E-01
  rms(prec ) = 0.39242E-01
  weight for this iteration     100.00

 eigenvalues of (default mixing * dielectric matrix)
  average eigenvalue GAMMA=   0.8493
  1.0997  0.5989

[...]

--------------------------------------- Iteration      5(   4)  ---------------------------------------

[...]

atom =  14  type =  3  l = 0

 onsite density matrix

[...]

  0.7737

 occupancies and eigenvectors

  o =  0.7737  v =  0.0000  1.0000      0.0000  0.0000
  o =  0.7759  v =  1.0000  0.0000      0.0000  0.0000

[...]

 eigenvalue-minimisations  :  1710
 total energy-change (2. order) :-0.6679124E-03  (-0.4928073E-03)
 number of electron      88.0000040 magnetization       8.0000007
 augmentation part       22.1969241 magnetization       5.5919595

 Free energy of the ion-electron system (eV)
  alpha Z        PSCENC =       292.65038983
  Ewald energy   TEWEN  =     -5904.28477038
  -Hartree energ DENC   =     -2631.59740620
  -exchange      EXHF   =         0.00000000
  -V(xc)+E(xc)   XCENC  =       273.28239745
  PAW double counting   =      6222.30728759    -6270.62842804
  entropy T*S    EENTRO =         0.00000000
  eigenvalues    EBANDS =      -667.88274577
  atomic energy  EATOM  =      8586.80016673
  Solvation  Ediel_sol  =         0.00000000
  free energy    TOTEN  =       -99.35310879 eV

  energy without entropy =      -99.35310879  energy(sigma->0) =      -99.35310879

 average (electrostatic) potential at core
  the test charge radii are     1.0406  0.9500  0.7215
  (the norm of the test charge is              1.0000)
       1 -73.6066       2 -73.6067       3 -73.6067       4 -73.6067       5 -44.9752
       6 -44.9148       7 -69.1423       8 -69.1386       9 -69.1386      10 -69.1386
      11 -69.1422      12 -69.1422      13 -69.1386      14 -69.1422

 E-fermi :   8.0606     XC(G=0): -11.2932     alpha+bet :-13.5380

 val. band max:        8.0655563500   @ k =   0.5000   0.2500   0.0000
 cond. band min:       8.0858869176   @ k =   0.5000   0.2500   0.0000
 fundamental gap:      0.0203305676
 Fermi energy:         8.0605819541

[...]

 k-point     8 :      -0.2500    0.5000    0.2500
  band No.  band energies     occupation
      1     -49.0782      1.00000
      2     -49.0782      1.00000
      3     -49.0782      1.00000
      4     -49.0123      1.00000
      5     -49.0123      1.00000
      6     -49.0122      1.00000
      7     -13.8254      1.00000
      8     -13.8223      1.00000
      9     -12.7641      1.00000
     10     -12.7630      1.00000
     11     -12.3838      1.00000
     12     -12.3802      1.00000
     13     -12.2645      1.00000
     14     -12.2631      1.00000
     15      -1.3774      1.00000
     16      -1.3552      1.00000
     17      -0.9669      1.00000
     18      -0.9664      1.00000
     19      -0.6802      1.00000
     20      -0.6581      1.00000
     21      -0.2717      1.00000
     22      -0.2541      1.00000
     23      -0.0699      1.00000
     24      -0.0490      1.00000
     25       0.4764      1.00000
     26       0.4958      1.00000
     27       0.6543      1.00000
     28       0.6758      1.00000
     29       0.8266      1.00000
     30       0.8289      1.00000
     31       1.3260      1.00000
     32       1.3299      1.00000
     33       1.7140      1.00000
     34       1.7329      1.00000
     35       1.9648      1.00000
     36       1.9729      1.00000
     37       2.6823      1.00000
     38       2.6856      1.00000
     39       2.9078      1.00000
     40       2.9120      1.00000
     41       3.1793      1.00000
     42       3.1938      1.00000
     43       3.2029      1.00000
     44       3.2071      1.00000
     45       4.0535      1.00000
     46       4.0743      1.00000
     47       4.1589      1.00000
     48       4.1834      1.00000
     49      11.6014      0.00000
     50      11.6053      0.00000
     51      12.6827      0.00000
     52      12.6830      0.00000
     53      14.3233      0.00000
     54      14.3235      0.00000
     55      15.2875      0.00000
     56      15.2888      0.00000
     57      15.5214      0.00000
     58      15.5218      0.00000
     59      16.3364      0.00000
     60      16.3377      0.00000
     61      16.4301      0.00000
     62      16.4305      0.00000
     63      16.7869      0.00000
     64      16.7873      0.00000
 Fermi energy:         8.0605819541

 spin component 2

[...]

 k-point     8 :      -0.2500    0.5000    0.2500
  band No.  band energies     occupation
      1     -44.8912      1.00000
      2     -44.8912      1.00000
      3     -44.8911      1.00000
      4     -44.8385      1.00000
      5     -44.8384      1.00000
      6     -44.8384      1.00000
      7     -13.7318      1.00000
      8     -13.7288      1.00000
      9     -12.6714      1.00000
     10     -12.6699      1.00000
     11     -12.2697      1.00000
     12     -12.2662      1.00000
     13     -12.1545      1.00000
     14     -12.1532      1.00000
     15      -0.6669      1.00000
     16      -0.6663      1.00000
     17      -0.5495      1.00000
     18      -0.5439      1.00000
     19       0.1012      1.00000
     20       0.1042      1.00000
     21       0.4005      1.00000
     22       0.4016      1.00000
     23       0.4541      1.00000
     24       0.4549      1.00000
     25       0.9432      1.00000
     26       0.9439      1.00000
     27       2.1336      1.00000
     28       2.1337      1.00000
     29       2.4602      1.00000
     30       2.4610      1.00000
     31       2.7131      1.00000
     32       2.7170      1.00000
     33       2.7425      1.00000
     34       2.7458      1.00000
     35       2.9999      1.00000
     36       3.0019      1.00000
     37       3.3102      1.00000
     38       3.3120      1.00000
     39       7.9836      1.00000
     40       7.9876      1.33258
     41       8.2888      0.00000
     42       8.3078      0.00000
     43       8.6787      0.00000
     44       8.6822      0.00000
     45       9.8332      0.00000
     46       9.8768      0.00000
     47       9.9176      0.00000
     48       9.9615      0.00000
     49      12.1438      0.00000
     50      12.1452      0.00000
     51      12.9084      0.00000
     52      12.9085      0.00000
     53      14.7943      0.00000
     54      14.7944      0.00000
     55      15.5600      0.00000
     56      15.5601      0.00000
     57      15.6876      0.00000
     58      15.6893      0.00000
     59      16.5910      0.00000
     60      16.5922      0.00000
     61      16.7097      0.00000
     62      16.7104      0.00000
     63      17.0911      0.00000
     64      17.0912      0.00000

[...]

 soft charge-density along one line, spin component           2
         0         1         2         3         4         5         6         7         8         9
 total charge-density along one line

------------------------ aborting loop because EDIFF is reached ----------------------------------------

[...]

  FORCE on cell =-STRESS in cart. coord.  units (eV):
  Direction    XX          YY          ZZ          XY          YZ          ZX
  Alpha Z   292.65039   292.65039   292.65039
  Ewald   -1968.09788 -1968.09968 -1968.09830     0.00312     0.00159    -0.00068
  Hartree   876.92534   876.92396   876.92274     0.00206     0.00051    -0.00033
  E(xc)    -462.21381  -462.21383  -462.21393     0.00002    -0.00002    -0.00005
  Local     -66.32746   -66.32349   -66.32140    -0.00583    -0.00192     0.00092
  n-local  -278.42333  -279.40447  -278.71205     1.51197     0.08177    -0.05440
  augment   192.03564   192.03535   192.03462     0.00029    -0.00004    -0.00021
  Kinetic  1405.89188  1416.03249  1420.25275    -1.39467    -0.53339     0.36881
  Fock        0.00000     0.00000     0.00000     0.00000     0.00000     0.00000
  Total       0.18545     0.18545     0.18545     0.00000     0.00000    -0.00000
  in kB       2.14159     2.14158     2.14158     0.00001     0.00000    -0.00000

 VOLUME and BASIS-vectors are now :
  energy-cutoff  :      520.00
  volume of cell :      138.74
      direct lattice vectors                 reciprocal lattice vectors
     5.032333679  0.000008242  2.905413529     0.198715043 -0.070256635  0.000000060
     1.677449398  4.744528429  2.905415598    -0.000000302  0.210769256 -0.000000075
    -0.000001022  0.000002072  5.810827087    -0.099357370 -0.070256385  0.172092549

  length of vectors
     5.810835571  5.810836970  5.810827087     0.210769218  0.210769256  0.210769286

 FORCES acting on ions
    electron-ion (+dipol)            ewald-force                    non-local-force                 convergence-correction
   0.278E-01 0.198E-01 0.483E-01   -.375E-03 -.168E-02 -.273E-02   -.229E-02 -.162E-02 -.396E-02   -.223E-01 -.158E-01 -.387E-01
   0.279E-01 0.196E-01 -.483E-01   -.176E-02 0.174E-03 0.310E-02   -.229E-02 -.162E-02 0.396E-02   -.223E-01 -.158E-01 0.387E-01
   0.553E-04 -.591E-01 -.120E-03   -.499E-03 0.311E-02 0.110E-02   0.529E-08 0.485E-02 0.210E-08   -.783E-06 0.474E-01 -.202E-06
   -.557E-01 0.198E-01 0.133E-03   0.276E-02 -.151E-02 -.122E-02   0.457E-02 -.162E-02 -.715E-09   0.447E-01 -.158E-01 0.431E-06
   -.192E-03 -.770E-04 0.151E-03   0.133E-02 0.853E-03 -.784E-03   0.821E-18 -.618E-18 -.211E-17   -.132E-05 -.103E-05 0.842E-06
   0.472E-04 -.249E-04 -.116E-03   -.933E-05 0.791E-04 0.465E-03   0.313E-17 -.266E-17 -.101E-16   0.198E-05 0.120E-05 0.224E-05
   0.461E+02 0.326E+02 0.798E+02   -.431E+02 -.305E+02 -.747E+02   -.280E+01 -.198E+01 -.485E+01   -.168E+00 -.119E+00 -.290E+00
   -.458E+02 -.324E+02 0.792E+02   0.431E+02 0.305E+02 -.747E+02   0.280E+01 0.198E+01 -.484E+01   -.160E+00 -.113E+00 0.277E+00
   0.645E-02 0.971E+02 -.352E-02   0.151E-03 -.915E+02 -.859E-03   -.647E-05 -.593E+01 -.257E-05   0.486E-05 0.339E+00 0.178E-05
   0.915E+02 -.323E+02 0.360E-02   -.863E+02 0.305E+02 0.138E-02   -.559E+01 0.198E+01 0.874E-06   0.320E+00 -.113E+00 0.257E-05
   -.226E-02 -.977E+02 -.110E-01   0.909E-03 0.915E+02 -.126E-02   0.648E-05 0.594E+01 0.258E-05   -.454E-06 0.356E+00 0.605E-06
   -.922E+02 0.326E+02 0.365E-02   0.863E+02 -.305E+02 0.626E-03   0.560E+01 -.198E+01 -.875E-06   0.335E+00 -.119E+00 -.373E-05
   -.458E+02 -.324E+02 -.792E+02   0.431E+02 0.305E+02 0.747E+02   0.280E+01 0.198E+01 0.484E+01   -.160E+00 -.113E+00 -.277E+00
   0.461E+02 0.326E+02 -.798E+02   -.431E+02 -.305E+02 0.747E+02   -.280E+01 -.198E+01 0.485E+01   -.168E+00 -.119E+00 0.290E+00
   -.702E-02 -.497E-02 -.713E-02   0.497E-13 -.107E-13 0.142E-13   0.000E+00 -.155E-14 -.266E-14   -.156E-05 -.831E-06 0.620E-05

 POSITION                                       TOTAL-FORCE (eV/Angst)
      3.35490      2.37228      5.81084         0.001774      0.001254      0.003072
      3.35490      2.37228      8.71623         0.001774      0.001254     -0.003072
      4.19362      4.74451      7.26354        -0.000000     -0.003763     -0.000000
      5.87104      2.37228      7.26353        -0.003547      0.001254      0.000000
      5.87106      4.15147     10.16895        -0.000000      0.000000      0.000000
      0.83872      0.59307      1.45271        -0.000000      0.000000      0.000000
      4.92865      3.48508      8.53664        -0.024031     -0.016992     -0.041623
      1.78114      1.25947      5.63122         0.014966      0.010583     -0.025922
      2.51616      3.33843      4.35812        -0.000000     -0.031748     -0.000000
      3.98622      1.25946      4.35812        -0.029932      0.010583      0.000000
      4.19361      1.40611      7.26354         0.000000      0.050977      0.000000
      2.72356      3.48508      7.26353         0.048062     -0.016992     -0.000000
      1.78115      1.25946      3.08502         0.014966      0.010583      0.025922
      4.92864      3.48509      5.99043        -0.024031     -0.016992      0.041623
    total drift:                               -0.007023     -0.004966     -0.007124

  FREE ENERGIE OF THE ION-ELECTRON SYSTEM (eV)
  free  energy   TOTEN  =       -99.35310879 eV

  energy  without entropy=      -99.35310879  energy(sigma->0) =      -99.35310879

 d Force = 0.1058044E-02[-0.139E-02, 0.350E-02]  d Energy = 0.9155472E-02-0.810E-02
 d Force =-0.3019688E+01[-0.306E+01,-0.298E+01]  d Ewald  =-0.1463753E+02 0.116E+02

 reached required accuracy - stopping structural energy minimisation
|           W    W    AA    RRRRR   N    N  II  N    N   GGGG   !!!           |
|           W    W   A  A   R    R  NN   N  II  NN   N  G    G  !!!           |
|           W    W  A    A  R    R  N N  N  II  N N  N  G       !!!           |
|           W WW W  AAAAAA  RRRRR   N  N N  II  N  N N  G  GGG   !            |
|           WW  WW  A    A  R   R   N   NN  II  N   NN  G    G                |
|           W    W  A    A  R    R  N    N  II  N    N   GGGG   !!!           |
|     Tetrahedron method does not include variations of the Fermi             |
|     occupations, so forces and stress will be inaccurate. We suggest        |
|     using a different smearing scheme ISMEAR = 1 or 2 for metals in         |
|     relaxations.                                                            |

 total charge

[...]

 magnetization (x)

# of ion       s       p       d       tot
    1       -0.001   0.002   0.000   0.001
    2       -0.001   0.002   0.000   0.001
    3       -0.001   0.002   0.000   0.001
    4       -0.001   0.002   0.000   0.001
    5        0.022   0.027   3.741   3.790
    6        0.022   0.028   3.783   3.833
    7        0.002   0.040   0.000   0.042
    8        0.002   0.040   0.000   0.043
    9        0.002   0.040   0.000   0.043
   10        0.002   0.040   0.000   0.043
   11        0.002   0.040   0.000   0.042
   12        0.002   0.040   0.000   0.042
   13        0.002   0.040   0.000   0.043
   14        0.002   0.040   0.000   0.042
tot          0.058   0.383   7.524   7.965

 BZINTS: Fermi energy:    8.060582;   88.000000 electrons
         Band energy:-0.667883E+03;  BLOECHL correction:   -0.009157